g-CO2-H2O-withbottom                    
   1.00000000000000     
    13.5650770000000005    0.0000000000000000    0.0000000000000000
     0.0000000000000000   10.2202300000000008    0.0000000000000000
     0.0000000000000000    0.0000000000000000   32.7325900000000019
   H    C    O    Si   Ca
    36     1   116    24    48
Selective dynamics
Direct
  0.8601453520706041  0.2595733709771415  0.5616548051813095   T   T   T
  0.8623249030512474  0.6200769701499179  0.6063814683297511   T   T   T
  0.6758720680560328  0.6643697380041532  0.6214587380730654   T   T   T
  0.0099459602646506  0.7599882222521908  0.6169234806030263   T   T   T
  0.9006148257893242  0.8131423584427967  0.5713239020402128   T   T   T
  0.4096987956330080  0.7457913189459181  0.5626112763891391   T   T   T
  0.9159477730565720  0.8273940822744503  0.6373367176783391   T   T   T
  0.3429782854223557  0.9201128949169850  0.6226665461876396   T   T   T
  0.4719230967282420  0.6376574451757098  0.6047446023357315   T   T   T
  0.6223480925613818  0.6757454250478613  0.5774415093263333   T   T   T
  0.5108654468136882  0.8137367384833849  0.6369114932483882   T   T   T
  0.6340254204230745  0.8598120099702412  0.5926180936461815   T   T   T
  0.1253281228942119  0.7277633896622681  0.5263257764965312   T   T   T
  0.4602010472292168  0.8621580827414363  0.6767918460111543   T   T   T
  0.6640305970970034  0.7189326817946509  0.5221123065181473   T   T   T
  0.2265412426944873  0.8926750164008546  0.6192752400338429   T   T   T
  0.4187337481911471  0.2151801012495419  0.5684830708309943   T   T   T
  0.0731266057788392  0.3841476766028830  0.5772736477572165   T   T   T
  0.9515544137104588  0.1206032437403801  0.5911386224649503   T   T   T
  0.8832090477595628  0.4725881772900576  0.6018151318635319   T   T   T
  0.6246587932593012  0.0153980950497154  0.6010082483437110   T   T   T
  0.6192001629176851  0.2326783939679102  0.6049803473520827   T   T   T
  0.6199366306280665  0.1919984365170466  0.6533058411698719   T   T   T
  0.7993014376998627  0.1752962056444548  0.6099167934697998   T   T   T
  0.4794818776139313  0.1368822960720734  0.6036779482075677   T   T   T
  0.0635623795699753  0.4343931098294460  0.6231036592858065   T   T   T
  0.1229804926925576  0.3655443081588297  0.5423549729234686   T   T   T
  0.2773051472483653  0.2527968445578389  0.5783918233520451   T   T   T
  0.2360649765227521  0.5116115025142893  0.6194094586256543   T   T   T
  0.1211640650371905  0.8210841062106899  0.5804108865521780   T   T   T
  0.3243689036359579  0.5974761202894734  0.5965372860884940   T   T   T
  0.1685791032198036  0.6989019599879943  0.6042507439504203   T   T   T
  0.0700769133892738  0.1490778138495614  0.5890824681000294   T   T   T
  0.2031747201784971  0.3077883828082681  0.6328259652457130   T   T   T
  0.2053529337173040  0.3640742919659658  0.6783590818121152   T   T   T
  0.2629285122570379  0.1264546894986223  0.6073467636594883   T   T   T
  0.6275986113720329  0.2951026027603952  0.5300145374098667   T   T   T
  0.6321846910462424  0.9481406292678990  0.5789269011812738   T   T   T
  0.2731761485965086  0.3455444675695497  0.4737956976658931   T   T   T
  0.6250199999999992  0.0876639999999966  0.9987190000000012   F   F   F
  0.1249660000000006  0.0876400000000004  0.9986490000000003   F   F   F
  0.6210430090384794  0.7086156863824660  0.6079310862920093   T   T   T
  0.3746564679839868  0.1173668723363719  0.4958718054982604   T   T   T
  0.8742760000000018  0.8898620000000008  0.3682409999999976   F   F   F
  0.8311722968667962  0.5380858231752734  0.5965627689660638   T   T   T
  0.9344893098540699  0.7598597740549625  0.6177531646541865   T   T   T
  0.6285390396481408  0.1677884561183603  0.5215624389741594   T   T   T
  0.6262265933218004  0.3309217072705948  0.5680505378944005   T   T   T
  0.3706785097168781  0.3348885420948282  0.5432785523689425   T   T   T
  0.4674128783698723  0.3460816265366433  0.4724443736240235   T   T   T
  0.7846243239288133  0.3541337151845358  0.4686737202487389   T   T   T
  0.4838562506746988  0.8496623934682790  0.4729969996403950   T   T   T
  0.8770971694057258  0.1227085414426699  0.4911792408242266   T   T   T
  0.4373248718887358  0.1248487774381584  0.5794975193929917   T   T   T
  0.6064096889190009  0.1596028228223891  0.6259361833542473   T   T   T
  0.0190840605404090  0.0833460248142630  0.5840929672778917   T   T   T
  0.8353294718311061  0.1501213376867335  0.5854954011729387   T   T   T
  0.2291673876668468  0.2044274806844831  0.5958141198262448   T   T   T
  0.0233303689324621  0.4258100966696055  0.5983184416782675   T   T   T
  0.1855182459952799  0.3852779767892826  0.6506163161777937   T   T   T
  0.7779159999999976  0.9019789999999972  0.2987469999999988   F   F   F
  0.8819512620896909  0.8562215159053317  0.5449631645726952   T   T   T
  0.8661260952404487  0.6228394711734621  0.5012290560155369   T   T   T
  0.9421254039509259  0.8502241839560517  0.4698778318314298   T   T   T
  0.7461444807840802  0.8382444896951042  0.4903962381935627   T   T   T
  0.1258059487696939  0.7790739361203110  0.6085753215570446   T   T   T
  0.6284112073142075  0.6411223724827734  0.5322401038348303   T   T   T
  0.2483681297181965  0.5756615314238661  0.5972897796620583   T   T   T
  0.2799950506277468  0.9547014692918089  0.6118622338197384   T   T   T
  0.3944480556467924  0.8283798642427291  0.5424372449776323   T   T   T
  0.3829094573263115  0.6171570573613405  0.4931405415563513   T   T   T
  0.1231290088414259  0.6410869067006868  0.5122156054579851   T   T   T
  0.2883779421012668  0.8494214605925450  0.4751309002906342   T   T   T
  0.8762995966539224  0.3338685762676173  0.5390823611429888   T   T   T
  0.4614761976007195  0.8756194437109921  0.6473442060063286   T   T   T
  0.4254787452789486  0.6251404128595308  0.5824048542242148   T   T   T
  0.9796100417569408  0.3523531244196290  0.4721637118060912   T   T   T
  0.7225063528601054  0.6045105740065583  0.4109915408785078   T   T   T
  0.2776319999999970  0.3565830000000005  0.1267550000000028   F   F   F
  0.8762200000000036  0.6227579999999975  0.3245750000000029   F   F   F
  0.1250939999999972  0.1570449999999965  0.1698149999999998   F   F   F
  0.3751069999999999  0.1320059999999970  0.1515509999999978   F   F   F
  0.3752330000000015  0.3608040000000017  0.1960529999999991   F   F   F
  0.5280399999999972  0.1550799999999981  0.2399750000000012   F   F   F
  0.6250769999999974  0.3806000000000012  0.2151240000000030   F   F   F
  0.6252989999999983  0.1562339999999978  0.1697530000000000   F   F   F
  0.7222969999999975  0.1554310000000001  0.2401150000000030   F   F   F
  0.8751430000000013  0.1321530000000024  0.1518780000000035   F   F   F
  0.1251249999999970  0.3806360000000026  0.2156749999999974   F   F   F
  0.8751299999999986  0.3611810000000020  0.1961599999999990   F   F   F
  0.2223809999999986  0.6545849999999973  0.2399509999999978   F   F   F
  0.1252739999999974  0.8806719999999970  0.2156220000000033   F   F   F
  0.1251650000000026  0.6570869999999971  0.1697369999999978   F   F   F
  0.3750130000000027  0.6319289999999995  0.1514170000000021   F   F   F
  0.3749019999999987  0.8603570000000005  0.1960750000000004   F   F   F
  0.5279200000000017  0.6548659999999984  0.2401600000000030   F   F   F
  0.9744450000000029  0.8999840000000034  0.2997000000000014   F   F   F
  0.6251469999999983  0.8807180000000017  0.2156889999999976   F   F   F
  0.0282679999999971  0.6544560000000033  0.2399929999999983   F   F   F
  0.6252950000000013  0.6570439999999991  0.1699640000000002   F   F   F
  0.2222560000000016  0.1545800000000028  0.2400099999999981   F   F   F
  0.9725350000000006  0.8568319999999972  0.1265399999999985   F   F   F
  0.2220069999999978  0.0923469999999966  0.0714090000000027   F   F   F
  0.0280389999999997  0.0925480000000007  0.0714449999999971   F   F   F
  0.1249740000000017  0.3773130000000009  0.0464479999999980   F   F   F
  0.4724840000000015  0.3565219999999982  0.1266630000000006   F   F   F
  0.5280920000000009  0.0921159999999972  0.0714609999999993   F   F   F
  0.6253809999999973  0.3775410000000008  0.0464569999999966   F   F   F
  0.7776759999999996  0.3564849999999993  0.1268209999999996   F   F   F
  0.7220879999999994  0.0921189999999967  0.0714339999999964   F   F   F
  0.0279870000000031  0.1544889999999981  0.2400310000000019   F   F   F
  0.9724860000000035  0.3566119999999984  0.1268110000000036   F   F   F
  0.2776050000000012  0.8566739999999982  0.1266779999999983   F   F   F
  0.2221169999999972  0.5920289999999966  0.0713670000000022   F   F   F
  0.0281039999999990  0.5920240000000021  0.0714129999999997   F   F   F
  0.4724360000000019  0.8566080000000014  0.1267509999999987   F   F   F
  0.6251389999999972  0.8773880000000034  0.0465549999999979   F   F   F
  0.5282100000000014  0.5921670000000034  0.0715250000000012   F   F   F
  0.7776830000000032  0.8566369999999992  0.1267690000000030   F   F   F
  0.7221440000000001  0.5921459999999996  0.0715569999999985   F   F   F
  0.1248799999999974  0.8778399999999991  0.0464359999999999   F   F   F
  0.7223320000000015  0.6549720000000008  0.2403210000000016   F   F   F
  0.6250440000000026  0.5876189999999966  0.9987149999999971   F   F   F
  0.7221280411701455  0.1004058793519705  0.4122737898420748   T   T   T
  0.2764579999999981  0.8998220000000003  0.3002010000000013   F   F   F
  0.1264320000000012  0.5994829999999993  0.3425330000000031   F   F   F
  0.1257299999999972  0.8767089999999982  0.3887440000000026   F   F   F
  0.8763530000000017  0.1219099999999997  0.3265620000000027   F   F   F
  0.8748560000000012  0.3948899999999966  0.3687350000000009   F   F   F
  0.7777450000000030  0.3998640000000009  0.2992649999999983   F   F   F
  0.8753570000000011  0.6319560000000024  0.1513810000000007   F   F   F
  0.9742499999999978  0.3993340000000032  0.2997599999999991   F   F   F
  0.1250410000000031  0.5875860000000017  0.9986060000000023   F   F   F
  0.3745109999999983  0.6229129999999969  0.3246690000000001   F   F   F
  0.4728470000000016  0.9008510000000030  0.2994350000000026   F   F   F
  0.3762260000000026  0.8942410000000010  0.3691389999999970   F   F   F
  0.6257639999999967  0.3759829999999980  0.3874020000000016   F   F   F
  0.6250929999999997  0.1006870000000006  0.3417850000000016   F   F   F
  0.2237814472806476  0.6026379048224983  0.4127631976554546   T   T   T
  0.6254539999999977  0.8761009999999985  0.3865949999999998   F   F   F
  0.3747189999999989  0.1230910000000023  0.3250010000000003   F   F   F
  0.8755969999999991  0.8602709999999973  0.1959710000000001   F   F   F
  0.2239495804469758  0.1039737231943004  0.4115788765607642   T   T   T
  0.0295029451482425  0.1022070921977931  0.4133073437757289   T   T   T
  0.5284264111176795  0.1012145360041100  0.4126150979479526   T   T   T
  0.1246960000000001  0.1000549999999976  0.3422679999999971   F   F   F
  0.2768280000000019  0.3997110000000035  0.2994529999999997   F   F   F
  0.6248030000000000  0.5986040000000017  0.3408540000000002   F   F   F
  0.4731459999999998  0.4001689999999982  0.2992520000000027   F   F   F
  0.5283482446809912  0.6009194542481688  0.4113754851049096   T   T   T
  0.3756309999999985  0.3939900000000023  0.3685169999999971   F   F   F
  0.1259810000000030  0.3771670000000000  0.3887810000000016   F   F   F
  0.0288134086130567  0.6041902667575116  0.4126376165441878   T   T   T
  0.1249749999999992  0.0363880000000023  0.0457630000000009   F   F   F
  0.3749170000000035  0.9632999999999967  0.3220150000000004   F   F   F
  0.1259439999999969  0.5380889999999994  0.3892159999999976   F   F   F
  0.8759549999999976  0.9624659999999992  0.3216150000000013   F   F   F
  0.6250709999999984  0.0358500000000035  0.0458080000000010   F   F   F
  0.6254080000000002  0.5364769999999979  0.3873030000000028   F   F   F
  0.6251719999999992  0.7201680000000010  0.2162849999999992   F   F   F
  0.3713931911877497  0.2787681344387878  0.4948159231572464   T   T   T
  0.3749570000000020  0.7923570000000026  0.1488829999999979   F   F   F
  0.3867381602625134  0.7762039953667301  0.4925622723669197   T   T   T
  0.8752899999999997  0.7923680000000033  0.1487819999999971   F   F   F
  0.1252909999999972  0.7201189999999968  0.2160610000000034   F   F   F
  0.1262320000000017  0.0372479999999982  0.3887199999999993   F   F   F
  0.8751090000000019  0.2924950000000024  0.1490500000000026   F   F   F
  0.1250739999999979  0.5358870000000024  0.0457839999999976   F   F   F
  0.6251839999999973  0.2200739999999968  0.2159440000000004   F   F   F
  0.3749970000000005  0.4631109999999978  0.3214869999999976   F   F   F
  0.8795729946832085  0.2824803994704970  0.4894960221468908   T   T   T
  0.6248620000000003  0.0369630000000001  0.3881039999999985   F   F   F
  0.1250969999999967  0.2200729999999993  0.2161380000000008   F   F   F
  0.8757909999999995  0.4629649999999970  0.3215100000000035   F   F   F
  0.6252110000000002  0.5360480000000010  0.0458610000000022   F   F   F
  0.3751150000000010  0.2924149999999983  0.1489159999999998   F   F   F
  0.8581841078598499  0.7810593738847402  0.4981665875880659   T   T   T
  0.0019410000000022  0.7486960000000025  0.3512369999999976   F   F   F
  0.2495373525585211  0.4997570864290709  0.5264456440547857   T   T   T
  0.1307905536603424  0.7578745322451106  0.4494516618647067   T   T   T
  0.8760910000000024  0.7496500000000026  0.2539129999999972   F   F   F
  0.7488180000000000  0.5065120000000007  0.1780639999999991   F   F   F
  0.6229858058767722  0.7584412606762244  0.4449628441865955   T   T   T
  0.6248270000000034  0.9999060000000028  0.2757440000000031   F   F   F
  0.5015250000000009  0.5064929999999990  0.1779939999999982   F   F   F
  0.3746140000000011  0.7498870000000011  0.2541969999999978   F   F   F
  0.9995475146729689  0.5018011271753706  0.5261270927097996   T   T   T
  0.1254160000000013  0.9993499999999997  0.2760589999999965   F   F   F
  0.0017690000000030  0.5063260000000014  0.1781750000000031   F   F   F
  0.8756959999999978  0.2498720000000034  0.2540070000000014   F   F   F
  0.7489160000000012  0.0058989999999994  0.1783250000000010   F   F   F
  0.6249219999999980  0.4977009999999993  0.2753510000000006   F   F   F
  0.5014359999999982  0.0060119999999984  0.1782060000000030   F   F   F
  0.0018109999999965  0.2512260000000026  0.3516019999999997   F   F   F
  0.2494609999999966  0.2498140000000006  0.3510369999999980   F   F   F
  0.2679468854749532  0.9841877836956139  0.5343805554883423   T   T   T
  0.0065230547673050  0.9985481498775225  0.5173167103534659   T   T   T
  0.5004169999999988  0.7484170000000034  0.3497350000000026   F   F   F
  0.3764138961595857  0.4990605837661770  0.4280118295440147   T   T   T
  0.7488680000000016  0.7481000000000009  0.3486619999999974   F   F   F
  0.8754199344375014  0.5092819336417620  0.4264661507715645   T   T   T
  0.1291941767499862  0.2610068682771562  0.4478334252606474   T   T   T
  0.2500360000000015  0.7494909999999990  0.3517719999999969   F   F   F
  0.5074585621861901  0.0043277468480805  0.5248510326833558   T   T   T
  0.8760753838446701  0.0103607713519326  0.4242473893731812   T   T   T
  0.7495639999999995  0.2496000000000009  0.3505139999999969   F   F   F
  0.6247831835841885  0.2643172730072155  0.4485186337963629   T   T   T
  0.4969983880997034  0.4926961943777849  0.5296220166587047   T   T   T
  0.5005179999999996  0.2491079999999997  0.3503979999999984   F   F   F
  0.3741721553963080  0.0056142417684444  0.4281143819942443   T   T   T
  0.7616260869793209  0.0265869010333403  0.5349805769196315   T   T   T
  0.7498153511628513  0.4851185189738643  0.5294781546900973   T   T   T
  0.3748369999999994  0.2497060000000033  0.2540619999999976   F   F   F
  0.1257149999999996  0.4994950000000031  0.2760480000000030   F   F   F
  0.2487149999999971  0.5062449999999998  0.1782100000000000   F   F   F
  0.0017700000000005  0.0061490000000006  0.1781220000000019   F   F   F
  0.6251329999999982  0.2568789999999979  0.1026239999999987   F   F   F
  0.8751419999999968  0.0094459999999970  0.0824690000000032   F   F   F
  0.8751820000000023  0.5091690000000000  0.0825189999999978   F   F   F
  0.3749779999999987  0.0095510000000019  0.0825359999999975   F   F   F
  0.6251310000000032  0.7569409999999976  0.1027360000000002   F   F   F
  0.1251869999999968  0.7568279999999987  0.1025429999999972   F   F   F
  0.3750810000000016  0.5093310000000031  0.0824900000000000   F   F   F
  0.1251239999999996  0.2570959999999971  0.1026689999999988   F   F   F
  0.2486000000000033  0.0063030000000026  0.1781870000000012   F   F   F
 
  0.00000000E+00  0.00000000E+00  0.00000000E+00
  0.00000000E+00  0.00000000E+00  0.00000000E+00
  0.00000000E+00  0.00000000E+00  0.00000000E+00
  0.00000000E+00  0.00000000E+00  0.00000000E+00
  0.00000000E+00  0.00000000E+00  0.00000000E+00
  0.00000000E+00  0.00000000E+00  0.00000000E+00
  0.00000000E+00  0.00000000E+00  0.00000000E+00
  0.00000000E+00  0.00000000E+00  0.00000000E+00
  0.00000000E+00  0.00000000E+00  0.00000000E+00
  0.00000000E+00  0.00000000E+00  0.00000000E+00
  0.00000000E+00  0.00000000E+00  0.00000000E+00
  0.00000000E+00  0.00000000E+00  0.00000000E+00
  0.00000000E+00  0.00000000E+00  0.00000000E+00
  0.00000000E+00  0.00000000E+00  0.00000000E+00
  0.00000000E+00  0.00000000E+00  0.00000000E+00
  0.00000000E+00  0.00000000E+00  0.00000000E+00
  0.00000000E+00  0.00000000E+00  0.00000000E+00
  0.00000000E+00  0.00000000E+00  0.00000000E+00
  0.00000000E+00  0.00000000E+00  0.00000000E+00
  0.00000000E+00  0.00000000E+00  0.00000000E+00
  0.00000000E+00  0.00000000E+00  0.00000000E+00
  0.00000000E+00  0.00000000E+00  0.00000000E+00
  0.00000000E+00  0.00000000E+00  0.00000000E+00
  0.00000000E+00  0.00000000E+00  0.00000000E+00
  0.00000000E+00  0.00000000E+00  0.00000000E+00
  0.00000000E+00  0.00000000E+00  0.00000000E+00
  0.00000000E+00  0.00000000E+00  0.00000000E+00
  0.00000000E+00  0.00000000E+00  0.00000000E+00
  0.00000000E+00  0.00000000E+00  0.00000000E+00
  0.00000000E+00  0.00000000E+00  0.00000000E+00
  0.00000000E+00  0.00000000E+00  0.00000000E+00
  0.00000000E+00  0.00000000E+00  0.00000000E+00
  0.00000000E+00  0.00000000E+00  0.00000000E+00
  0.00000000E+00  0.00000000E+00  0.00000000E+00
  0.00000000E+00  0.00000000E+00  0.00000000E+00
  0.00000000E+00  0.00000000E+00  0.00000000E+00
  0.00000000E+00  0.00000000E+00  0.00000000E+00
  0.00000000E+00  0.00000000E+00  0.00000000E+00
  0.00000000E+00  0.00000000E+00  0.00000000E+00
  0.00000000E+00  0.00000000E+00  0.00000000E+00
  0.00000000E+00  0.00000000E+00  0.00000000E+00
  0.00000000E+00  0.00000000E+00  0.00000000E+00
  0.00000000E+00  0.00000000E+00  0.00000000E+00
  0.00000000E+00  0.00000000E+00  0.00000000E+00
  0.00000000E+00  0.00000000E+00  0.00000000E+00
  0.00000000E+00  0.00000000E+00  0.00000000E+00
  0.00000000E+00  0.00000000E+00  0.00000000E+00
  0.00000000E+00  0.00000000E+00  0.00000000E+00
  0.00000000E+00  0.00000000E+00  0.00000000E+00
  0.00000000E+00  0.00000000E+00  0.00000000E+00
  0.00000000E+00  0.00000000E+00  0.00000000E+00
  0.00000000E+00  0.00000000E+00  0.00000000E+00
  0.00000000E+00  0.00000000E+00  0.00000000E+00
  0.00000000E+00  0.00000000E+00  0.00000000E+00
  0.00000000E+00  0.00000000E+00  0.00000000E+00
  0.00000000E+00  0.00000000E+00  0.00000000E+00
  0.00000000E+00  0.00000000E+00  0.00000000E+00
  0.00000000E+00  0.00000000E+00  0.00000000E+00
  0.00000000E+00  0.00000000E+00  0.00000000E+00
  0.00000000E+00  0.00000000E+00  0.00000000E+00
  0.00000000E+00  0.00000000E+00  0.00000000E+00
  0.00000000E+00  0.00000000E+00  0.00000000E+00
  0.00000000E+00  0.00000000E+00  0.00000000E+00
  0.00000000E+00  0.00000000E+00  0.00000000E+00
  0.00000000E+00  0.00000000E+00  0.00000000E+00
  0.00000000E+00  0.00000000E+00  0.00000000E+00
  0.00000000E+00  0.00000000E+00  0.00000000E+00
  0.00000000E+00  0.00000000E+00  0.00000000E+00
  0.00000000E+00  0.00000000E+00  0.00000000E+00
  0.00000000E+00  0.00000000E+00  0.00000000E+00
  0.00000000E+00  0.00000000E+00  0.00000000E+00
  0.00000000E+00  0.00000000E+00  0.00000000E+00
  0.00000000E+00  0.00000000E+00  0.00000000E+00
  0.00000000E+00  0.00000000E+00  0.00000000E+00
  0.00000000E+00  0.00000000E+00  0.00000000E+00
  0.00000000E+00  0.00000000E+00  0.00000000E+00
  0.00000000E+00  0.00000000E+00  0.00000000E+00
  0.00000000E+00  0.00000000E+00  0.00000000E+00
  0.00000000E+00  0.00000000E+00  0.00000000E+00
  0.00000000E+00  0.00000000E+00  0.00000000E+00
  0.00000000E+00  0.00000000E+00  0.00000000E+00
  0.00000000E+00  0.00000000E+00  0.00000000E+00
  0.00000000E+00  0.00000000E+00  0.00000000E+00
  0.00000000E+00  0.00000000E+00  0.00000000E+00
  0.00000000E+00  0.00000000E+00  0.00000000E+00
  0.00000000E+00  0.00000000E+00  0.00000000E+00
  0.00000000E+00  0.00000000E+00  0.00000000E+00
  0.00000000E+00  0.00000000E+00  0.00000000E+00
  0.00000000E+00  0.00000000E+00  0.00000000E+00
  0.00000000E+00  0.00000000E+00  0.00000000E+00
  0.00000000E+00  0.00000000E+00  0.00000000E+00
  0.00000000E+00  0.00000000E+00  0.00000000E+00
  0.00000000E+00  0.00000000E+00  0.00000000E+00
  0.00000000E+00  0.00000000E+00  0.00000000E+00
  0.00000000E+00  0.00000000E+00  0.00000000E+00
  0.00000000E+00  0.00000000E+00  0.00000000E+00
  0.00000000E+00  0.00000000E+00  0.00000000E+00
  0.00000000E+00  0.00000000E+00  0.00000000E+00
  0.00000000E+00  0.00000000E+00  0.00000000E+00
  0.00000000E+00  0.00000000E+00  0.00000000E+00
  0.00000000E+00  0.00000000E+00  0.00000000E+00
  0.00000000E+00  0.00000000E+00  0.00000000E+00
  0.00000000E+00  0.00000000E+00  0.00000000E+00
  0.00000000E+00  0.00000000E+00  0.00000000E+00
  0.00000000E+00  0.00000000E+00  0.00000000E+00
  0.00000000E+00  0.00000000E+00  0.00000000E+00
  0.00000000E+00  0.00000000E+00  0.00000000E+00
  0.00000000E+00  0.00000000E+00  0.00000000E+00
  0.00000000E+00  0.00000000E+00  0.00000000E+00
  0.00000000E+00  0.00000000E+00  0.00000000E+00
  0.00000000E+00  0.00000000E+00  0.00000000E+00
  0.00000000E+00  0.00000000E+00  0.00000000E+00
  0.00000000E+00  0.00000000E+00  0.00000000E+00
  0.00000000E+00  0.00000000E+00  0.00000000E+00
  0.00000000E+00  0.00000000E+00  0.00000000E+00
  0.00000000E+00  0.00000000E+00  0.00000000E+00
  0.00000000E+00  0.00000000E+00  0.00000000E+00
  0.00000000E+00  0.00000000E+00  0.00000000E+00
  0.00000000E+00  0.00000000E+00  0.00000000E+00
  0.00000000E+00  0.00000000E+00  0.00000000E+00
  0.00000000E+00  0.00000000E+00  0.00000000E+00
  0.00000000E+00  0.00000000E+00  0.00000000E+00
  0.00000000E+00  0.00000000E+00  0.00000000E+00
  0.00000000E+00  0.00000000E+00  0.00000000E+00
  0.00000000E+00  0.00000000E+00  0.00000000E+00
  0.00000000E+00  0.00000000E+00  0.00000000E+00
  0.00000000E+00  0.00000000E+00  0.00000000E+00
  0.00000000E+00  0.00000000E+00  0.00000000E+00
  0.00000000E+00  0.00000000E+00  0.00000000E+00
  0.00000000E+00  0.00000000E+00  0.00000000E+00
  0.00000000E+00  0.00000000E+00  0.00000000E+00
  0.00000000E+00  0.00000000E+00  0.00000000E+00
  0.00000000E+00  0.00000000E+00  0.00000000E+00
  0.00000000E+00  0.00000000E+00  0.00000000E+00
  0.00000000E+00  0.00000000E+00  0.00000000E+00
  0.00000000E+00  0.00000000E+00  0.00000000E+00
  0.00000000E+00  0.00000000E+00  0.00000000E+00
  0.00000000E+00  0.00000000E+00  0.00000000E+00
  0.00000000E+00  0.00000000E+00  0.00000000E+00
  0.00000000E+00  0.00000000E+00  0.00000000E+00
  0.00000000E+00  0.00000000E+00  0.00000000E+00
  0.00000000E+00  0.00000000E+00  0.00000000E+00
  0.00000000E+00  0.00000000E+00  0.00000000E+00
  0.00000000E+00  0.00000000E+00  0.00000000E+00
  0.00000000E+00  0.00000000E+00  0.00000000E+00
  0.00000000E+00  0.00000000E+00  0.00000000E+00
  0.00000000E+00  0.00000000E+00  0.00000000E+00
  0.00000000E+00  0.00000000E+00  0.00000000E+00
  0.00000000E+00  0.00000000E+00  0.00000000E+00
  0.00000000E+00  0.00000000E+00  0.00000000E+00
  0.00000000E+00  0.00000000E+00  0.00000000E+00
  0.00000000E+00  0.00000000E+00  0.00000000E+00
  0.00000000E+00  0.00000000E+00  0.00000000E+00
  0.00000000E+00  0.00000000E+00  0.00000000E+00
  0.00000000E+00  0.00000000E+00  0.00000000E+00
  0.00000000E+00  0.00000000E+00  0.00000000E+00
  0.00000000E+00  0.00000000E+00  0.00000000E+00
  0.00000000E+00  0.00000000E+00  0.00000000E+00
  0.00000000E+00  0.00000000E+00  0.00000000E+00
  0.00000000E+00  0.00000000E+00  0.00000000E+00
  0.00000000E+00  0.00000000E+00  0.00000000E+00
  0.00000000E+00  0.00000000E+00  0.00000000E+00
  0.00000000E+00  0.00000000E+00  0.00000000E+00
  0.00000000E+00  0.00000000E+00  0.00000000E+00
  0.00000000E+00  0.00000000E+00  0.00000000E+00
  0.00000000E+00  0.00000000E+00  0.00000000E+00
  0.00000000E+00  0.00000000E+00  0.00000000E+00
  0.00000000E+00  0.00000000E+00  0.00000000E+00
  0.00000000E+00  0.00000000E+00  0.00000000E+00
  0.00000000E+00  0.00000000E+00  0.00000000E+00
  0.00000000E+00  0.00000000E+00  0.00000000E+00
  0.00000000E+00  0.00000000E+00  0.00000000E+00
  0.00000000E+00  0.00000000E+00  0.00000000E+00
  0.00000000E+00  0.00000000E+00  0.00000000E+00
  0.00000000E+00  0.00000000E+00  0.00000000E+00
  0.00000000E+00  0.00000000E+00  0.00000000E+00
  0.00000000E+00  0.00000000E+00  0.00000000E+00
  0.00000000E+00  0.00000000E+00  0.00000000E+00
  0.00000000E+00  0.00000000E+00  0.00000000E+00
  0.00000000E+00  0.00000000E+00  0.00000000E+00
  0.00000000E+00  0.00000000E+00  0.00000000E+00
  0.00000000E+00  0.00000000E+00  0.00000000E+00
  0.00000000E+00  0.00000000E+00  0.00000000E+00
  0.00000000E+00  0.00000000E+00  0.00000000E+00
  0.00000000E+00  0.00000000E+00  0.00000000E+00
  0.00000000E+00  0.00000000E+00  0.00000000E+00
  0.00000000E+00  0.00000000E+00  0.00000000E+00
  0.00000000E+00  0.00000000E+00  0.00000000E+00
  0.00000000E+00  0.00000000E+00  0.00000000E+00
  0.00000000E+00  0.00000000E+00  0.00000000E+00
  0.00000000E+00  0.00000000E+00  0.00000000E+00
  0.00000000E+00  0.00000000E+00  0.00000000E+00
  0.00000000E+00  0.00000000E+00  0.00000000E+00
  0.00000000E+00  0.00000000E+00  0.00000000E+00
  0.00000000E+00  0.00000000E+00  0.00000000E+00
  0.00000000E+00  0.00000000E+00  0.00000000E+00
  0.00000000E+00  0.00000000E+00  0.00000000E+00
  0.00000000E+00  0.00000000E+00  0.00000000E+00
  0.00000000E+00  0.00000000E+00  0.00000000E+00
  0.00000000E+00  0.00000000E+00  0.00000000E+00
  0.00000000E+00  0.00000000E+00  0.00000000E+00
  0.00000000E+00  0.00000000E+00  0.00000000E+00
  0.00000000E+00  0.00000000E+00  0.00000000E+00
  0.00000000E+00  0.00000000E+00  0.00000000E+00
  0.00000000E+00  0.00000000E+00  0.00000000E+00
  0.00000000E+00  0.00000000E+00  0.00000000E+00
  0.00000000E+00  0.00000000E+00  0.00000000E+00
  0.00000000E+00  0.00000000E+00  0.00000000E+00
  0.00000000E+00  0.00000000E+00  0.00000000E+00
  0.00000000E+00  0.00000000E+00  0.00000000E+00
  0.00000000E+00  0.00000000E+00  0.00000000E+00
  0.00000000E+00  0.00000000E+00  0.00000000E+00
  0.00000000E+00  0.00000000E+00  0.00000000E+00
  0.00000000E+00  0.00000000E+00  0.00000000E+00
  0.00000000E+00  0.00000000E+00  0.00000000E+00
  0.00000000E+00  0.00000000E+00  0.00000000E+00
  0.00000000E+00  0.00000000E+00  0.00000000E+00
  0.00000000E+00  0.00000000E+00  0.00000000E+00
  0.00000000E+00  0.00000000E+00  0.00000000E+00
  0.00000000E+00  0.00000000E+00  0.00000000E+00
  0.00000000E+00  0.00000000E+00  0.00000000E+00
  0.00000000E+00  0.00000000E+00  0.00000000E+00
  0.00000000E+00  0.00000000E+00  0.00000000E+00
  0.00000000E+00  0.00000000E+00  0.00000000E+00
  0.00000000E+00  0.00000000E+00  0.00000000E+00
