6225
Lattice="67.825385 0.0 0.0 0.0 51.101150000000004 0.0 0.0 0.0 32.73259" Properties=species:S:1:pos:R:3 meia_example_source=examples/CONTCAR meia_example_source_sha256=187ee6a6d1c5bffc2b55a8ea254f0dc86c82a1f56743fcdad55504488b399d5f meia_example_transformation=repeat_5x5x1_add_200_H2O pbc="T T T"
H       11.66793793       2.65289955      18.38441646
H       11.69750371       6.33732925      19.84843599
H        9.16825665       6.79001153      20.34195408
H        0.13491772       7.76725443      20.19350335
H       12.21690946       8.31050193      18.70091104
H        5.55759571       7.62215881      18.41572424
H       12.42490207       8.45615782      20.86168147
H        4.65252685       9.40376541      20.38148876
H        6.40167315       6.51700575      19.79485712
H        8.44219980       6.90627367      18.90115617
H        6.92992912       8.31657663      20.84776277
H        8.60060365       8.78747650      19.39792509
H        1.70008564       7.43790923      17.22800585
H        6.24266264       8.81145390      22.15315001
H        9.00762618       7.34765736      17.09008806
H        3.07304940       9.12334398      20.27048253
H        5.68015554       2.19919013      18.60792328
H        0.99196804       3.92607761      18.89566163
H       12.90790889       1.23259289      19.34949816
H       11.98079874       4.82995987      19.69896797
H        8.47354463       0.15737207      19.67255658
H        8.39949789       2.37802670      19.80257367
H        8.40948813       1.96226818      21.38439224
H       10.84258555       1.79156754      19.96415633
H        6.50420859       1.39896855      19.75994277
H        0.86222857       4.43959749      20.39579661
H        1.66823985       3.73594690      17.75268296
H        3.76166567       2.58364189      18.93226241
H        3.20223958       5.22878723      20.27487585
H        1.64359987       8.39166841      18.99835158
H        4.40008915       6.10634337      19.52621041
H        2.28678852       7.14293878      19.77869186
H        0.95059873       1.52360955      19.28219490
H        2.75608072       3.14566806      20.71403286
H        2.78562836       3.72092300      22.20444970
H        3.56664551       1.29239601      19.88003260
C        8.51342349       3.01601647      17.34874855
O        8.57563401       9.69021530      18.94977690
O        3.70565549       3.53154393      15.50856032
O        8.47844443       0.89594624      32.69065955
O        1.69517341       0.89570096      32.68836827
O        8.42449624       7.24221530      19.89915900
O        5.08224384       1.19951643      16.23116850
O       11.85962126       9.09459431      12.05348167
O       11.27491621       5.49936087      19.52704453
O       12.67641944       7.76594166      20.22066106
O        8.52618047       1.71483661      17.07208947
O        8.49481196       3.38209596      18.59376536
O        5.02828253       3.42263792      17.78291411
O        6.34049169       3.53703382      15.46432798
O       10.64348937       3.61932802      15.34090473
O        6.56354730       8.68374508      15.48241686
O       11.89789064       1.25410952      16.07756871
O        5.93234556       1.27598322      18.96845471
O        8.22599412       1.63117756      20.48851246
O        0.25887675       0.85181554      19.11887562
O       11.33130861       1.53427460      19.16478091
O        3.10867326       2.08929587      19.50253930
O        0.31647825       4.35187712      19.58451224
O        2.51656929       3.93762954      21.29635712
O       10.55249044       9.21843284       9.77876306
O       11.96373678       8.75078082      17.83805583
O       11.74906717       6.36556265      16.40652519
O       12.78000365       8.68948671      15.38031842
O       10.12150733       8.56705148      16.05193900
O        1.70656738       7.96231481      19.92024648
O        8.52444641       6.55241810      17.42159710
O        3.36913280       5.88339325      19.55084147
O        3.79815442       9.75726860      20.02783564
O        5.35071825       8.46623274      17.75537594
O        5.19419627       6.30748707      16.14176716
O        1.67025449       6.55205564      16.76614341
O        3.91186899       8.68128269      15.55226496
O       11.88707150       3.41221364      17.64556190
O        6.25996015       8.94903211      21.18925248
O        5.77165194       6.38907880      19.06361931
O       13.28848565       3.60112997      15.45514119
O        9.80085431       6.17823710      13.45281760
O        3.76609946       3.64436027       4.14901945
O       11.88599177       6.36472999      10.62418040
O        1.69690974       1.60503602       5.55848477
O        5.08835534       1.34913168       4.96065675
O        5.09006454       3.68749986       6.41732247
O        7.16290326       1.58495327       7.85500329
O        8.47921764       3.88981954       7.04156569
O        8.48222908       1.59674741       5.55645535
O        9.79801442       1.58854057       7.85958585
O       11.87138218       1.35063406       4.97136030
O        1.69733026       3.89018747       7.05960135
O       11.87120584       3.69135289       6.42082485
O        3.01661539       6.69000925       7.85421770
O        1.69935146       9.00067039       7.05786652
O        1.69787286       6.71558027       5.55593163
O        5.08708022       6.45845972       4.95627058
O        5.08557450       8.79304642       6.41804258
O        7.16127545       6.69288114       7.86105881
O       13.21842146       9.19804348       9.80995722
O        8.48016719       9.00114053       7.06005960
O        0.38345760       6.68869084       7.85559247
O        8.48217482       6.71514080       5.56336193
O        3.01491975       1.57984315       7.85614893
O       13.19251216       8.75702011       4.14198194
O        3.01154205       0.94380758       2.33740152
O        0.38035119       0.94586185       2.33857989
O        1.69528193       3.85622564       1.52036334
O        6.40928184       3.64373684       4.14600805
O        7.16360864       0.94144671       2.33910361
O        8.48334142       3.85855585       1.52065793
O       10.54923482       3.64335869       4.15117980
O        9.79517932       0.94147737       2.33821983
O        0.37964581       1.57891311       7.85683631
O       13.19184747       3.64465666       4.15085247
O        3.76573320       8.75540532       4.14649904
O        3.01303421       6.05067255       2.33602675
O        0.38123292       6.05062145       2.33753245
O        6.40863072       8.75473078       4.14888852
O        8.48005867       8.96710716       1.52386573
O        7.16520932       6.05208294       2.34119850
O       10.54932978       8.75502717       4.14947770
O        9.79593897       6.05186831       2.34224594
O        1.69400682       8.97172670       1.51997055
O        9.79848920       6.69396448       7.86632876
O        8.47876999       6.00560133      32.69052862
O        9.79572248       1.02617118      13.49478893
O        3.75017406       9.19638780       9.82635625
O        1.71505982       6.12685414      11.21199225
O        1.70553713       8.96016762      12.72459797
O       11.88779592       1.24594824      10.68922006
O       11.86748900       4.03586662      12.06965157
O       10.55017081       4.08670205       9.79571855
O       11.87428511       6.45873567       4.95509221
O       13.21577627       4.08128533       9.81192118
O        1.69619079       6.00526406      32.68696077
O        5.08027055       6.36631413      10.62725726
O        6.41420596       9.20690442       9.80128309
O        5.10353466       9.13934870      12.08287554
O        8.48853684       3.84263274      12.68067083
O        8.47943468       1.02904430      11.18750827
O        3.03561256       6.15909799      13.51080852
O        8.48433167       8.95395372      12.65425563
O        5.08309209       1.25801833      10.63812448
O       11.87754073       8.79216748       6.41463839
O        3.03789330       1.06263537      13.47204262
O        0.40020972       1.04457999      13.52861983
O        7.16814496       1.03443584      13.50596083
O        1.69151084       1.02258511      11.20331811
O        3.75519314       4.08513835       9.80187227
O        8.47550080       6.11787056      11.15703423
O        6.41826192       4.08981922       9.79529302
O        7.16708462       6.14153503      13.46538509
O        5.09546344       4.02666842      12.06251587
O        1.70894197       3.85473349      12.72580907
O        0.39085611       6.17496349      13.50669792
Si       1.69529550       0.37189373       1.49794152
Si       5.08577797       9.84514756      10.54038497
Si       1.70844006       5.49939334      12.74004775
Si      11.88239702       9.83662389      10.52729193
Si       8.47913625       0.36639525       1.49941448
Si       8.48370768       5.48291833      12.67743030
Si       8.48050632       7.36028260       7.07956823
Si       5.03797724       2.84907445      16.19660674
Si       5.08632058       8.09807078       4.87332620
Si       5.24613292       7.93298336      16.12283891
Si      11.87337625       8.09818320       4.87002021
Si       1.69958206       7.35978181       7.07223613
Si       1.71234680       0.38068313      12.72381238
Si      11.87092097       2.98936617       4.87879254
Si       1.69663844       5.47688839       1.49862890
Si       8.48066910       2.24920690       7.06840641
Si       5.08686318       4.73310094      10.52310216
Si      11.93147540       2.88701465      16.02247260
Si       8.47630114       0.37777036      12.70364911
Si       1.69695044       2.24919668       7.07475654
Si      11.88017235       4.73160878      10.52385501
Si       8.48103536       5.47853385       1.50114931
Si       5.08846386       2.98854856       4.87440637
Si      11.64133350       7.98260644      16.30628266
Ca       0.02632981       7.65184532      11.49689671
Ca       3.38499340       5.10763237      17.23192942
Ca       1.77418393       7.74565203      14.71171697
Ca      11.88424187       7.66159542       8.31123012
Ca      10.15777383       5.17666914       5.82849591
Ca       8.45085043       7.75144413      14.56478634
Ca       8.47582637      10.21926930       9.02581530
Ca       6.80322524       5.17647495       5.82620462
Ca       5.08166776       7.66401761       8.32052618
Ca      13.55893900       5.12852293      17.22150241
Ca       1.70127770      10.21358685       9.03612606
Ca       0.02399662       5.17476817       5.83212922
Ca      11.87888367       2.55374931       8.31430699
Ca      10.15910321       0.06028914       5.83703911
Ca       8.47711505       5.08661869       9.01295139
Ca       6.80201795       0.06144402       5.83314393
Ca       0.02456635       2.56758750      11.50884411
Ca       3.38395767       2.55315654      11.49035020
Ca       3.63472013      10.05862551      17.49165963
Ca       0.08848574      10.20539176      16.93311578
Ca       6.78819514       7.64899388      11.44773236
Ca       5.10608349       5.10051395      14.00993573
Ca      10.15845208       7.64575406      11.41261029
Ca      11.87513882       5.20497850      13.95934166
Ca       1.75252896       2.66755023      14.65874790
Ca       3.39175759       7.65997040      11.51440865
Ca       6.88371447       0.04423057      17.17973366
Ca      11.88403004       0.10588947      13.88671585
Ca      10.16789338       2.55096941      11.47323105
Ca       8.47523199       2.70138332      14.68117655
Ca       6.74182140       5.03546843      17.33590033
Ca       6.78956521       2.54594105      11.46943407
Ca       5.07567410       0.05737884      14.01329254
Ca      10.33151652       0.27172424      17.51129988
Ca      10.17130297       4.95802284      17.33119135
Ca       5.08469277       2.55205275       8.31610728
Ca       1.70533366       5.10495378       9.03576600
Ca       3.37383813       5.17394034       5.83327486
Ca       0.02401019       0.06284419       5.83039440
Ca       8.47997728       2.62536246       3.35914932
Ca      11.87136862       0.09654029       2.69942396
Ca      11.87191122       5.20382429       2.70106059
Ca       5.08660544       0.09761342       2.70161705
Ca       8.47995015       7.73611112       3.36281537
Ca       1.69817129       7.73495623       3.35649798
Ca       5.08800265       5.20547997       2.70011135
Ca       1.69731669       2.62758025       3.36062228
Ca       3.37227814       0.06441811       5.83252201
H       11.66793793      12.87312955      18.38441646
H       11.69750371      16.55755925      19.84843599
H        9.16825665      17.01024153      20.34195408
H        0.13491772      17.98748443      20.19350335
H       12.21690946      18.53073193      18.70091104
H        5.55759571      17.84238881      18.41572424
H       12.42490207      18.67638782      20.86168147
H        4.65252685      19.62399541      20.38148876
H        6.40167315      16.73723575      19.79485712
H        8.44219980      17.12650367      18.90115617
H        6.92992912      18.53680663      20.84776277
H        8.60060365      19.00770650      19.39792509
H        1.70008564      17.65813923      17.22800585
H        6.24266264      19.03168390      22.15315001
H        9.00762618      17.56788736      17.09008806
H        3.07304940      19.34357398      20.27048253
H        5.68015554      12.41942013      18.60792328
H        0.99196804      14.14630761      18.89566163
H       12.90790889      11.45282289      19.34949816
H       11.98079874      15.05018987      19.69896797
H        8.47354463      10.37760207      19.67255658
H        8.39949789      12.59825670      19.80257367
H        8.40948813      12.18249818      21.38439224
H       10.84258555      12.01179754      19.96415633
H        6.50420859      11.61919855      19.75994277
H        0.86222857      14.65982749      20.39579661
H        1.66823985      13.95617690      17.75268296
H        3.76166567      12.80387189      18.93226241
H        3.20223958      15.44901723      20.27487585
H        1.64359987      18.61189841      18.99835158
H        4.40008915      16.32657337      19.52621041
H        2.28678852      17.36316878      19.77869186
H        0.95059873      11.74383955      19.28219490
H        2.75608072      13.36589806      20.71403286
H        2.78562836      13.94115300      22.20444970
H        3.56664551      11.51262601      19.88003260
C        8.51342349      13.23624647      17.34874855
O        8.57563401      19.91044530      18.94977690
O        3.70565549      13.75177393      15.50856032
O        8.47844443      11.11617624      32.69065955
O        1.69517341      11.11593096      32.68836827
O        8.42449624      17.46244530      19.89915900
O        5.08224384      11.41974643      16.23116850
O       11.85962126      19.31482431      12.05348167
O       11.27491621      15.71959087      19.52704453
O       12.67641944      17.98617166      20.22066106
O        8.52618047      11.93506661      17.07208947
O        8.49481196      13.60232596      18.59376536
O        5.02828253      13.64286792      17.78291411
O        6.34049169      13.75726382      15.46432798
O       10.64348937      13.83955802      15.34090473
O        6.56354730      18.90397508      15.48241686
O       11.89789064      11.47433952      16.07756871
O        5.93234556      11.49621322      18.96845471
O        8.22599412      11.85140756      20.48851246
O        0.25887675      11.07204554      19.11887562
O       11.33130861      11.75450460      19.16478091
O        3.10867326      12.30952587      19.50253930
O        0.31647825      14.57210712      19.58451224
O        2.51656929      14.15785954      21.29635712
O       10.55249044      19.43866284       9.77876306
O       11.96373678      18.97101082      17.83805583
O       11.74906717      16.58579265      16.40652519
O       12.78000365      18.90971671      15.38031842
O       10.12150733      18.78728148      16.05193900
O        1.70656738      18.18254481      19.92024648
O        8.52444641      16.77264810      17.42159710
O        3.36913280      16.10362325      19.55084147
O        3.79815442      19.97749860      20.02783564
O        5.35071825      18.68646274      17.75537594
O        5.19419627      16.52771707      16.14176716
O        1.67025449      16.77228564      16.76614341
O        3.91186899      18.90151269      15.55226496
O       11.88707150      13.63244364      17.64556190
O        6.25996015      19.16926211      21.18925248
O        5.77165194      16.60930880      19.06361931
O       13.28848565      13.82135997      15.45514119
O        9.80085431      16.39846710      13.45281760
O        3.76609946      13.86459027       4.14901945
O       11.88599177      16.58495999      10.62418040
O        1.69690974      11.82526602       5.55848477
O        5.08835534      11.56936168       4.96065675
O        5.09006454      13.90772986       6.41732247
O        7.16290326      11.80518327       7.85500329
O        8.47921764      14.11004954       7.04156569
O        8.48222908      11.81697741       5.55645535
O        9.79801442      11.80877057       7.85958585
O       11.87138218      11.57086406       4.97136030
O        1.69733026      14.11041747       7.05960135
O       11.87120584      13.91158289       6.42082485
O        3.01661539      16.91023925       7.85421770
O        1.69935146      19.22090039       7.05786652
O        1.69787286      16.93581027       5.55593163
O        5.08708022      16.67868972       4.95627058
O        5.08557450      19.01327642       6.41804258
O        7.16127545      16.91311114       7.86105881
O       13.21842146      19.41827348       9.80995722
O        8.48016719      19.22137053       7.06005960
O        0.38345760      16.90892084       7.85559247
O        8.48217482      16.93537080       5.56336193
O        3.01491975      11.80007315       7.85614893
O       13.19251216      18.97725011       4.14198194
O        3.01154205      11.16403758       2.33740152
O        0.38035119      11.16609185       2.33857989
O        1.69528193      14.07645564       1.52036334
O        6.40928184      13.86396684       4.14600805
O        7.16360864      11.16167671       2.33910361
O        8.48334142      14.07878585       1.52065793
O       10.54923482      13.86358869       4.15117980
O        9.79517932      11.16170737       2.33821983
O        0.37964581      11.79914311       7.85683631
O       13.19184747      13.86488666       4.15085247
O        3.76573320      18.97563532       4.14649904
O        3.01303421      16.27090255       2.33602675
O        0.38123292      16.27085145       2.33753245
O        6.40863072      18.97496078       4.14888852
O        8.48005867      19.18733716       1.52386573
O        7.16520932      16.27231294       2.34119850
O       10.54932978      18.97525717       4.14947770
O        9.79593897      16.27209831       2.34224594
O        1.69400682      19.19195670       1.51997055
O        9.79848920      16.91419448       7.86632876
O        8.47876999      16.22583133      32.69052862
O        9.79572248      11.24640118      13.49478893
O        3.75017406      19.41661780       9.82635625
O        1.71505982      16.34708414      11.21199225
O        1.70553713      19.18039762      12.72459797
O       11.88779592      11.46617824      10.68922006
O       11.86748900      14.25609662      12.06965157
O       10.55017081      14.30693205       9.79571855
O       11.87428511      16.67896567       4.95509221
O       13.21577627      14.30151533       9.81192118
O        1.69619079      16.22549406      32.68696077
O        5.08027055      16.58654413      10.62725726
O        6.41420596      19.42713442       9.80128309
O        5.10353466      19.35957870      12.08287554
O        8.48853684      14.06286274      12.68067083
O        8.47943468      11.24927430      11.18750827
O        3.03561256      16.37932799      13.51080852
O        8.48433167      19.17418372      12.65425563
O        5.08309209      11.47824833      10.63812448
O       11.87754073      19.01239748       6.41463839
O        3.03789330      11.28286537      13.47204262
O        0.40020972      11.26480999      13.52861983
O        7.16814496      11.25466584      13.50596083
O        1.69151084      11.24281511      11.20331811
O        3.75519314      14.30536835       9.80187227
O        8.47550080      16.33810056      11.15703423
O        6.41826192      14.31004922       9.79529302
O        7.16708462      16.36176503      13.46538509
O        5.09546344      14.24689842      12.06251587
O        1.70894197      14.07496349      12.72580907
O        0.39085611      16.39519349      13.50669792
Si       1.69529550      10.59212373       1.49794152
Si       5.08577797      20.06537756      10.54038497
Si       1.70844006      15.71962334      12.74004775
Si      11.88239702      20.05685389      10.52729193
Si       8.47913625      10.58662525       1.49941448
Si       8.48370768      15.70314833      12.67743030
Si       8.48050632      17.58051260       7.07956823
Si       5.03797724      13.06930445      16.19660674
Si       5.08632058      18.31830078       4.87332620
Si       5.24613292      18.15321336      16.12283891
Si      11.87337625      18.31841320       4.87002021
Si       1.69958206      17.58001181       7.07223613
Si       1.71234680      10.60091313      12.72381238
Si      11.87092097      13.20959617       4.87879254
Si       1.69663844      15.69711839       1.49862890
Si       8.48066910      12.46943690       7.06840641
Si       5.08686318      14.95333094      10.52310216
Si      11.93147540      13.10724465      16.02247260
Si       8.47630114      10.59800036      12.70364911
Si       1.69695044      12.46942668       7.07475654
Si      11.88017235      14.95183878      10.52385501
Si       8.48103536      15.69876385       1.50114931
Si       5.08846386      13.20877856       4.87440637
Si      11.64133350      18.20283644      16.30628266
Ca       0.02632981      17.87207532      11.49689671
Ca       3.38499340      15.32786237      17.23192942
Ca       1.77418393      17.96588203      14.71171697
Ca      11.88424187      17.88182542       8.31123012
Ca      10.15777383      15.39689914       5.82849591
Ca       8.45085043      17.97167413      14.56478634
Ca       8.47582637      20.43949930       9.02581530
Ca       6.80322524      15.39670495       5.82620462
Ca       5.08166776      17.88424761       8.32052618
Ca      13.55893900      15.34875293      17.22150241
Ca       1.70127770      20.43381685       9.03612606
Ca       0.02399662      15.39499817       5.83212922
Ca      11.87888367      12.77397931       8.31430699
Ca      10.15910321      10.28051914       5.83703911
Ca       8.47711505      15.30684869       9.01295139
Ca       6.80201795      10.28167402       5.83314393
Ca       0.02456635      12.78781750      11.50884411
Ca       3.38395767      12.77338654      11.49035020
Ca       3.63472013      20.27885551      17.49165963
Ca       0.08848574      20.42562176      16.93311578
Ca       6.78819514      17.86922388      11.44773236
Ca       5.10608349      15.32074395      14.00993573
Ca      10.15845208      17.86598406      11.41261029
Ca      11.87513882      15.42520850      13.95934166
Ca       1.75252896      12.88778023      14.65874790
Ca       3.39175759      17.88020040      11.51440865
Ca       6.88371447      10.26446057      17.17973366
Ca      11.88403004      10.32611947      13.88671585
Ca      10.16789338      12.77119941      11.47323105
Ca       8.47523199      12.92161332      14.68117655
Ca       6.74182140      15.25569843      17.33590033
Ca       6.78956521      12.76617105      11.46943407
Ca       5.07567410      10.27760884      14.01329254
Ca      10.33151652      10.49195424      17.51129988
Ca      10.17130297      15.17825284      17.33119135
Ca       5.08469277      12.77228275       8.31610728
Ca       1.70533366      15.32518378       9.03576600
Ca       3.37383813      15.39417034       5.83327486
Ca       0.02401019      10.28307419       5.83039440
Ca       8.47997728      12.84559246       3.35914932
Ca      11.87136862      10.31677029       2.69942396
Ca      11.87191122      15.42405429       2.70106059
Ca       5.08660544      10.31784342       2.70161705
Ca       8.47995015      17.95634112       3.36281537
Ca       1.69817129      17.95518623       3.35649798
Ca       5.08800265      15.42570997       2.70011135
Ca       1.69731669      12.84781025       3.36062228
Ca       3.37227814      10.28464811       5.83252201
H       11.66793793      23.09335955      18.38441646
H       11.69750371      26.77778925      19.84843599
H        9.16825665      27.23047153      20.34195408
H        0.13491772      28.20771443      20.19350335
H       12.21690946      28.75096193      18.70091104
H        5.55759571      28.06261881      18.41572424
H       12.42490207      28.89661782      20.86168147
H        4.65252685      29.84422541      20.38148876
H        6.40167315      26.95746575      19.79485712
H        8.44219980      27.34673367      18.90115617
H        6.92992912      28.75703663      20.84776277
H        8.60060365      29.22793650      19.39792509
H        1.70008564      27.87836923      17.22800585
H        6.24266264      29.25191390      22.15315001
H        9.00762618      27.78811736      17.09008806
H        3.07304940      29.56380398      20.27048253
H        5.68015554      22.63965013      18.60792328
H        0.99196804      24.36653761      18.89566163
H       12.90790889      21.67305289      19.34949816
H       11.98079874      25.27041987      19.69896797
H        8.47354463      20.59783207      19.67255658
H        8.39949789      22.81848670      19.80257367
H        8.40948813      22.40272818      21.38439224
H       10.84258555      22.23202754      19.96415633
H        6.50420859      21.83942855      19.75994277
H        0.86222857      24.88005749      20.39579661
H        1.66823985      24.17640690      17.75268296
H        3.76166567      23.02410189      18.93226241
H        3.20223958      25.66924723      20.27487585
H        1.64359987      28.83212841      18.99835158
H        4.40008915      26.54680337      19.52621041
H        2.28678852      27.58339878      19.77869186
H        0.95059873      21.96406955      19.28219490
H        2.75608072      23.58612806      20.71403286
H        2.78562836      24.16138300      22.20444970
H        3.56664551      21.73285601      19.88003260
C        8.51342349      23.45647647      17.34874855
O        8.57563401      30.13067530      18.94977690
O        3.70565549      23.97200393      15.50856032
O        8.47844443      21.33640624      32.69065955
O        1.69517341      21.33616096      32.68836827
O        8.42449624      27.68267530      19.89915900
O        5.08224384      21.63997643      16.23116850
O       11.85962126      29.53505431      12.05348167
O       11.27491621      25.93982087      19.52704453
O       12.67641944      28.20640166      20.22066106
O        8.52618047      22.15529661      17.07208947
O        8.49481196      23.82255596      18.59376536
O        5.02828253      23.86309792      17.78291411
O        6.34049169      23.97749382      15.46432798
O       10.64348937      24.05978802      15.34090473
O        6.56354730      29.12420508      15.48241686
O       11.89789064      21.69456952      16.07756871
O        5.93234556      21.71644322      18.96845471
O        8.22599412      22.07163756      20.48851246
O        0.25887675      21.29227554      19.11887562
O       11.33130861      21.97473460      19.16478091
O        3.10867326      22.52975587      19.50253930
O        0.31647825      24.79233712      19.58451224
O        2.51656929      24.37808954      21.29635712
O       10.55249044      29.65889284       9.77876306
O       11.96373678      29.19124082      17.83805583
O       11.74906717      26.80602265      16.40652519
O       12.78000365      29.12994671      15.38031842
O       10.12150733      29.00751148      16.05193900
O        1.70656738      28.40277481      19.92024648
O        8.52444641      26.99287810      17.42159710
O        3.36913280      26.32385325      19.55084147
O        3.79815442      30.19772860      20.02783564
O        5.35071825      28.90669274      17.75537594
O        5.19419627      26.74794707      16.14176716
O        1.67025449      26.99251564      16.76614341
O        3.91186899      29.12174269      15.55226496
O       11.88707150      23.85267364      17.64556190
O        6.25996015      29.38949211      21.18925248
O        5.77165194      26.82953880      19.06361931
O       13.28848565      24.04158997      15.45514119
O        9.80085431      26.61869710      13.45281760
O        3.76609946      24.08482027       4.14901945
O       11.88599177      26.80518999      10.62418040
O        1.69690974      22.04549602       5.55848477
O        5.08835534      21.78959168       4.96065675
O        5.09006454      24.12795986       6.41732247
O        7.16290326      22.02541327       7.85500329
O        8.47921764      24.33027954       7.04156569
O        8.48222908      22.03720741       5.55645535
O        9.79801442      22.02900057       7.85958585
O       11.87138218      21.79109406       4.97136030
O        1.69733026      24.33064747       7.05960135
O       11.87120584      24.13181289       6.42082485
O        3.01661539      27.13046925       7.85421770
O        1.69935146      29.44113039       7.05786652
O        1.69787286      27.15604027       5.55593163
O        5.08708022      26.89891972       4.95627058
O        5.08557450      29.23350642       6.41804258
O        7.16127545      27.13334114       7.86105881
O       13.21842146      29.63850348       9.80995722
O        8.48016719      29.44160053       7.06005960
O        0.38345760      27.12915084       7.85559247
O        8.48217482      27.15560080       5.56336193
O        3.01491975      22.02030315       7.85614893
O       13.19251216      29.19748011       4.14198194
O        3.01154205      21.38426758       2.33740152
O        0.38035119      21.38632185       2.33857989
O        1.69528193      24.29668564       1.52036334
O        6.40928184      24.08419684       4.14600805
O        7.16360864      21.38190671       2.33910361
O        8.48334142      24.29901585       1.52065793
O       10.54923482      24.08381869       4.15117980
O        9.79517932      21.38193737       2.33821983
O        0.37964581      22.01937311       7.85683631
O       13.19184747      24.08511666       4.15085247
O        3.76573320      29.19586532       4.14649904
O        3.01303421      26.49113255       2.33602675
O        0.38123292      26.49108145       2.33753245
O        6.40863072      29.19519078       4.14888852
O        8.48005867      29.40756716       1.52386573
O        7.16520932      26.49254294       2.34119850
O       10.54932978      29.19548717       4.14947770
O        9.79593897      26.49232831       2.34224594
O        1.69400682      29.41218670       1.51997055
O        9.79848920      27.13442448       7.86632876
O        8.47876999      26.44606133      32.69052862
O        9.79572248      21.46663118      13.49478893
O        3.75017406      29.63684780       9.82635625
O        1.71505982      26.56731414      11.21199225
O        1.70553713      29.40062762      12.72459797
O       11.88779592      21.68640824      10.68922006
O       11.86748900      24.47632662      12.06965157
O       10.55017081      24.52716205       9.79571855
O       11.87428511      26.89919567       4.95509221
O       13.21577627      24.52174533       9.81192118
O        1.69619079      26.44572406      32.68696077
O        5.08027055      26.80677413      10.62725726
O        6.41420596      29.64736442       9.80128309
O        5.10353466      29.57980870      12.08287554
O        8.48853684      24.28309274      12.68067083
O        8.47943468      21.46950430      11.18750827
O        3.03561256      26.59955799      13.51080852
O        8.48433167      29.39441372      12.65425563
O        5.08309209      21.69847833      10.63812448
O       11.87754073      29.23262748       6.41463839
O        3.03789330      21.50309537      13.47204262
O        0.40020972      21.48503999      13.52861983
O        7.16814496      21.47489584      13.50596083
O        1.69151084      21.46304511      11.20331811
O        3.75519314      24.52559835       9.80187227
O        8.47550080      26.55833056      11.15703423
O        6.41826192      24.53027922       9.79529302
O        7.16708462      26.58199503      13.46538509
O        5.09546344      24.46712842      12.06251587
O        1.70894197      24.29519349      12.72580907
O        0.39085611      26.61542349      13.50669792
Si       1.69529550      20.81235373       1.49794152
Si       5.08577797      30.28560756      10.54038497
Si       1.70844006      25.93985334      12.74004775
Si      11.88239702      30.27708389      10.52729193
Si       8.47913625      20.80685525       1.49941448
Si       8.48370768      25.92337833      12.67743030
Si       8.48050632      27.80074260       7.07956823
Si       5.03797724      23.28953445      16.19660674
Si       5.08632058      28.53853078       4.87332620
Si       5.24613292      28.37344336      16.12283891
Si      11.87337625      28.53864320       4.87002021
Si       1.69958206      27.80024181       7.07223613
Si       1.71234680      20.82114313      12.72381238
Si      11.87092097      23.42982617       4.87879254
Si       1.69663844      25.91734839       1.49862890
Si       8.48066910      22.68966690       7.06840641
Si       5.08686318      25.17356094      10.52310216
Si      11.93147540      23.32747465      16.02247260
Si       8.47630114      20.81823036      12.70364911
Si       1.69695044      22.68965668       7.07475654
Si      11.88017235      25.17206878      10.52385501
Si       8.48103536      25.91899385       1.50114931
Si       5.08846386      23.42900856       4.87440637
Si      11.64133350      28.42306644      16.30628266
Ca       0.02632981      28.09230532      11.49689671
Ca       3.38499340      25.54809237      17.23192942
Ca       1.77418393      28.18611203      14.71171697
Ca      11.88424187      28.10205542       8.31123012
Ca      10.15777383      25.61712914       5.82849591
Ca       8.45085043      28.19190413      14.56478634
Ca       8.47582637      30.65972930       9.02581530
Ca       6.80322524      25.61693495       5.82620462
Ca       5.08166776      28.10447761       8.32052618
Ca      13.55893900      25.56898293      17.22150241
Ca       1.70127770      30.65404685       9.03612606
Ca       0.02399662      25.61522817       5.83212922
Ca      11.87888367      22.99420931       8.31430699
Ca      10.15910321      20.50074914       5.83703911
Ca       8.47711505      25.52707869       9.01295139
Ca       6.80201795      20.50190402       5.83314393
Ca       0.02456635      23.00804750      11.50884411
Ca       3.38395767      22.99361654      11.49035020
Ca       3.63472013      30.49908551      17.49165963
Ca       0.08848574      30.64585176      16.93311578
Ca       6.78819514      28.08945388      11.44773236
Ca       5.10608349      25.54097395      14.00993573
Ca      10.15845208      28.08621406      11.41261029
Ca      11.87513882      25.64543850      13.95934166
Ca       1.75252896      23.10801023      14.65874790
Ca       3.39175759      28.10043040      11.51440865
Ca       6.88371447      20.48469057      17.17973366
Ca      11.88403004      20.54634947      13.88671585
Ca      10.16789338      22.99142941      11.47323105
Ca       8.47523199      23.14184332      14.68117655
Ca       6.74182140      25.47592843      17.33590033
Ca       6.78956521      22.98640105      11.46943407
Ca       5.07567410      20.49783884      14.01329254
Ca      10.33151652      20.71218424      17.51129988
Ca      10.17130297      25.39848284      17.33119135
Ca       5.08469277      22.99251275       8.31610728
Ca       1.70533366      25.54541378       9.03576600
Ca       3.37383813      25.61440034       5.83327486
Ca       0.02401019      20.50330419       5.83039440
Ca       8.47997728      23.06582246       3.35914932
Ca      11.87136862      20.53700029       2.69942396
Ca      11.87191122      25.64428429       2.70106059
Ca       5.08660544      20.53807342       2.70161705
Ca       8.47995015      28.17657112       3.36281537
Ca       1.69817129      28.17541623       3.35649798
Ca       5.08800265      25.64593997       2.70011135
Ca       1.69731669      23.06804025       3.36062228
Ca       3.37227814      20.50487811       5.83252201
H       11.66793793      33.31358955      18.38441646
H       11.69750371      36.99801925      19.84843599
H        9.16825665      37.45070153      20.34195408
H        0.13491772      38.42794443      20.19350335
H       12.21690946      38.97119193      18.70091104
H        5.55759571      38.28284881      18.41572424
H       12.42490207      39.11684782      20.86168147
H        4.65252685      40.06445541      20.38148876
H        6.40167315      37.17769575      19.79485712
H        8.44219980      37.56696367      18.90115617
H        6.92992912      38.97726663      20.84776277
H        8.60060365      39.44816650      19.39792509
H        1.70008564      38.09859923      17.22800585
H        6.24266264      39.47214390      22.15315001
H        9.00762618      38.00834736      17.09008806
H        3.07304940      39.78403398      20.27048253
H        5.68015554      32.85988013      18.60792328
H        0.99196804      34.58676761      18.89566163
H       12.90790889      31.89328289      19.34949816
H       11.98079874      35.49064987      19.69896797
H        8.47354463      30.81806207      19.67255658
H        8.39949789      33.03871670      19.80257367
H        8.40948813      32.62295818      21.38439224
H       10.84258555      32.45225754      19.96415633
H        6.50420859      32.05965855      19.75994277
H        0.86222857      35.10028749      20.39579661
H        1.66823985      34.39663690      17.75268296
H        3.76166567      33.24433189      18.93226241
H        3.20223958      35.88947723      20.27487585
H        1.64359987      39.05235841      18.99835158
H        4.40008915      36.76703337      19.52621041
H        2.28678852      37.80362878      19.77869186
H        0.95059873      32.18429955      19.28219490
H        2.75608072      33.80635806      20.71403286
H        2.78562836      34.38161300      22.20444970
H        3.56664551      31.95308601      19.88003260
C        8.51342349      33.67670647      17.34874855
O        8.57563401      40.35090530      18.94977690
O        3.70565549      34.19223393      15.50856032
O        8.47844443      31.55663624      32.69065955
O        1.69517341      31.55639096      32.68836827
O        8.42449624      37.90290530      19.89915900
O        5.08224384      31.86020643      16.23116850
O       11.85962126      39.75528431      12.05348167
O       11.27491621      36.16005087      19.52704453
O       12.67641944      38.42663166      20.22066106
O        8.52618047      32.37552661      17.07208947
O        8.49481196      34.04278596      18.59376536
O        5.02828253      34.08332792      17.78291411
O        6.34049169      34.19772382      15.46432798
O       10.64348937      34.28001802      15.34090473
O        6.56354730      39.34443508      15.48241686
O       11.89789064      31.91479952      16.07756871
O        5.93234556      31.93667322      18.96845471
O        8.22599412      32.29186756      20.48851246
O        0.25887675      31.51250554      19.11887562
O       11.33130861      32.19496460      19.16478091
O        3.10867326      32.74998587      19.50253930
O        0.31647825      35.01256712      19.58451224
O        2.51656929      34.59831954      21.29635712
O       10.55249044      39.87912284       9.77876306
O       11.96373678      39.41147082      17.83805583
O       11.74906717      37.02625265      16.40652519
O       12.78000365      39.35017671      15.38031842
O       10.12150733      39.22774148      16.05193900
O        1.70656738      38.62300481      19.92024648
O        8.52444641      37.21310810      17.42159710
O        3.36913280      36.54408325      19.55084147
O        3.79815442      40.41795860      20.02783564
O        5.35071825      39.12692274      17.75537594
O        5.19419627      36.96817707      16.14176716
O        1.67025449      37.21274564      16.76614341
O        3.91186899      39.34197269      15.55226496
O       11.88707150      34.07290364      17.64556190
O        6.25996015      39.60972211      21.18925248
O        5.77165194      37.04976880      19.06361931
O       13.28848565      34.26181997      15.45514119
O        9.80085431      36.83892710      13.45281760
O        3.76609946      34.30505027       4.14901945
O       11.88599177      37.02541999      10.62418040
O        1.69690974      32.26572602       5.55848477
O        5.08835534      32.00982168       4.96065675
O        5.09006454      34.34818986       6.41732247
O        7.16290326      32.24564327       7.85500329
O        8.47921764      34.55050954       7.04156569
O        8.48222908      32.25743741       5.55645535
O        9.79801442      32.24923057       7.85958585
O       11.87138218      32.01132406       4.97136030
O        1.69733026      34.55087747       7.05960135
O       11.87120584      34.35204289       6.42082485
O        3.01661539      37.35069925       7.85421770
O        1.69935146      39.66136039       7.05786652
O        1.69787286      37.37627027       5.55593163
O        5.08708022      37.11914972       4.95627058
O        5.08557450      39.45373642       6.41804258
O        7.16127545      37.35357114       7.86105881
O       13.21842146      39.85873348       9.80995722
O        8.48016719      39.66183053       7.06005960
O        0.38345760      37.34938084       7.85559247
O        8.48217482      37.37583080       5.56336193
O        3.01491975      32.24053315       7.85614893
O       13.19251216      39.41771011       4.14198194
O        3.01154205      31.60449758       2.33740152
O        0.38035119      31.60655185       2.33857989
O        1.69528193      34.51691564       1.52036334
O        6.40928184      34.30442684       4.14600805
O        7.16360864      31.60213671       2.33910361
O        8.48334142      34.51924585       1.52065793
O       10.54923482      34.30404869       4.15117980
O        9.79517932      31.60216737       2.33821983
O        0.37964581      32.23960311       7.85683631
O       13.19184747      34.30534666       4.15085247
O        3.76573320      39.41609532       4.14649904
O        3.01303421      36.71136255       2.33602675
O        0.38123292      36.71131145       2.33753245
O        6.40863072      39.41542078       4.14888852
O        8.48005867      39.62779716       1.52386573
O        7.16520932      36.71277294       2.34119850
O       10.54932978      39.41571717       4.14947770
O        9.79593897      36.71255831       2.34224594
O        1.69400682      39.63241670       1.51997055
O        9.79848920      37.35465448       7.86632876
O        8.47876999      36.66629133      32.69052862
O        9.79572248      31.68686118      13.49478893
O        3.75017406      39.85707780       9.82635625
O        1.71505982      36.78754414      11.21199225
O        1.70553713      39.62085762      12.72459797
O       11.88779592      31.90663824      10.68922006
O       11.86748900      34.69655662      12.06965157
O       10.55017081      34.74739205       9.79571855
O       11.87428511      37.11942567       4.95509221
O       13.21577627      34.74197533       9.81192118
O        1.69619079      36.66595406      32.68696077
O        5.08027055      37.02700413      10.62725726
O        6.41420596      39.86759442       9.80128309
O        5.10353466      39.80003870      12.08287554
O        8.48853684      34.50332274      12.68067083
O        8.47943468      31.68973430      11.18750827
O        3.03561256      36.81978799      13.51080852
O        8.48433167      39.61464372      12.65425563
O        5.08309209      31.91870833      10.63812448
O       11.87754073      39.45285748       6.41463839
O        3.03789330      31.72332537      13.47204262
O        0.40020972      31.70526999      13.52861983
O        7.16814496      31.69512584      13.50596083
O        1.69151084      31.68327511      11.20331811
O        3.75519314      34.74582835       9.80187227
O        8.47550080      36.77856056      11.15703423
O        6.41826192      34.75050922       9.79529302
O        7.16708462      36.80222503      13.46538509
O        5.09546344      34.68735842      12.06251587
O        1.70894197      34.51542349      12.72580907
O        0.39085611      36.83565349      13.50669792
Si       1.69529550      31.03258373       1.49794152
Si       5.08577797      40.50583756      10.54038497
Si       1.70844006      36.16008334      12.74004775
Si      11.88239702      40.49731389      10.52729193
Si       8.47913625      31.02708525       1.49941448
Si       8.48370768      36.14360833      12.67743030
Si       8.48050632      38.02097260       7.07956823
Si       5.03797724      33.50976445      16.19660674
Si       5.08632058      38.75876078       4.87332620
Si       5.24613292      38.59367336      16.12283891
Si      11.87337625      38.75887320       4.87002021
Si       1.69958206      38.02047181       7.07223613
Si       1.71234680      31.04137313      12.72381238
Si      11.87092097      33.65005617       4.87879254
Si       1.69663844      36.13757839       1.49862890
Si       8.48066910      32.90989690       7.06840641
Si       5.08686318      35.39379094      10.52310216
Si      11.93147540      33.54770465      16.02247260
Si       8.47630114      31.03846036      12.70364911
Si       1.69695044      32.90988668       7.07475654
Si      11.88017235      35.39229878      10.52385501
Si       8.48103536      36.13922385       1.50114931
Si       5.08846386      33.64923856       4.87440637
Si      11.64133350      38.64329644      16.30628266
Ca       0.02632981      38.31253532      11.49689671
Ca       3.38499340      35.76832237      17.23192942
Ca       1.77418393      38.40634203      14.71171697
Ca      11.88424187      38.32228542       8.31123012
Ca      10.15777383      35.83735914       5.82849591
Ca       8.45085043      38.41213413      14.56478634
Ca       8.47582637      40.87995930       9.02581530
Ca       6.80322524      35.83716495       5.82620462
Ca       5.08166776      38.32470761       8.32052618
Ca      13.55893900      35.78921293      17.22150241
Ca       1.70127770      40.87427685       9.03612606
Ca       0.02399662      35.83545817       5.83212922
Ca      11.87888367      33.21443931       8.31430699
Ca      10.15910321      30.72097914       5.83703911
Ca       8.47711505      35.74730869       9.01295139
Ca       6.80201795      30.72213402       5.83314393
Ca       0.02456635      33.22827750      11.50884411
Ca       3.38395767      33.21384654      11.49035020
Ca       3.63472013      40.71931551      17.49165963
Ca       0.08848574      40.86608176      16.93311578
Ca       6.78819514      38.30968388      11.44773236
Ca       5.10608349      35.76120395      14.00993573
Ca      10.15845208      38.30644406      11.41261029
Ca      11.87513882      35.86566850      13.95934166
Ca       1.75252896      33.32824023      14.65874790
Ca       3.39175759      38.32066040      11.51440865
Ca       6.88371447      30.70492057      17.17973366
Ca      11.88403004      30.76657947      13.88671585
Ca      10.16789338      33.21165941      11.47323105
Ca       8.47523199      33.36207332      14.68117655
Ca       6.74182140      35.69615843      17.33590033
Ca       6.78956521      33.20663105      11.46943407
Ca       5.07567410      30.71806884      14.01329254
Ca      10.33151652      30.93241424      17.51129988
Ca      10.17130297      35.61871284      17.33119135
Ca       5.08469277      33.21274275       8.31610728
Ca       1.70533366      35.76564378       9.03576600
Ca       3.37383813      35.83463034       5.83327486
Ca       0.02401019      30.72353419       5.83039440
Ca       8.47997728      33.28605246       3.35914932
Ca      11.87136862      30.75723029       2.69942396
Ca      11.87191122      35.86451429       2.70106059
Ca       5.08660544      30.75830342       2.70161705
Ca       8.47995015      38.39680112       3.36281537
Ca       1.69817129      38.39564623       3.35649798
Ca       5.08800265      35.86616997       2.70011135
Ca       1.69731669      33.28827025       3.36062228
Ca       3.37227814      30.72510811       5.83252201
H       11.66793793      43.53381955      18.38441646
H       11.69750371      47.21824925      19.84843599
H        9.16825665      47.67093153      20.34195408
H        0.13491772      48.64817443      20.19350335
H       12.21690946      49.19142193      18.70091104
H        5.55759571      48.50307881      18.41572424
H       12.42490207      49.33707782      20.86168147
H        4.65252685      50.28468541      20.38148876
H        6.40167315      47.39792575      19.79485712
H        8.44219980      47.78719367      18.90115617
H        6.92992912      49.19749663      20.84776277
H        8.60060365      49.66839650      19.39792509
H        1.70008564      48.31882923      17.22800585
H        6.24266264      49.69237390      22.15315001
H        9.00762618      48.22857736      17.09008806
H        3.07304940      50.00426398      20.27048253
H        5.68015554      43.08011013      18.60792328
H        0.99196804      44.80699761      18.89566163
H       12.90790889      42.11351289      19.34949816
H       11.98079874      45.71087987      19.69896797
H        8.47354463      41.03829207      19.67255658
H        8.39949789      43.25894670      19.80257367
H        8.40948813      42.84318818      21.38439224
H       10.84258555      42.67248754      19.96415633
H        6.50420859      42.27988855      19.75994277
H        0.86222857      45.32051749      20.39579661
H        1.66823985      44.61686690      17.75268296
H        3.76166567      43.46456189      18.93226241
H        3.20223958      46.10970723      20.27487585
H        1.64359987      49.27258841      18.99835158
H        4.40008915      46.98726337      19.52621041
H        2.28678852      48.02385878      19.77869186
H        0.95059873      42.40452955      19.28219490
H        2.75608072      44.02658806      20.71403286
H        2.78562836      44.60184300      22.20444970
H        3.56664551      42.17331601      19.88003260
C        8.51342349      43.89693647      17.34874855
O        8.57563401      50.57113530      18.94977690
O        3.70565549      44.41246393      15.50856032
O        8.47844443      41.77686624      32.69065955
O        1.69517341      41.77662096      32.68836827
O        8.42449624      48.12313530      19.89915900
O        5.08224384      42.08043643      16.23116850
O       11.85962126      49.97551431      12.05348167
O       11.27491621      46.38028087      19.52704453
O       12.67641944      48.64686166      20.22066106
O        8.52618047      42.59575661      17.07208947
O        8.49481196      44.26301596      18.59376536
O        5.02828253      44.30355792      17.78291411
O        6.34049169      44.41795382      15.46432798
O       10.64348937      44.50024802      15.34090473
O        6.56354730      49.56466508      15.48241686
O       11.89789064      42.13502952      16.07756871
O        5.93234556      42.15690322      18.96845471
O        8.22599412      42.51209756      20.48851246
O        0.25887675      41.73273554      19.11887562
O       11.33130861      42.41519460      19.16478091
O        3.10867326      42.97021587      19.50253930
O        0.31647825      45.23279712      19.58451224
O        2.51656929      44.81854954      21.29635712
O       10.55249044      50.09935284       9.77876306
O       11.96373678      49.63170082      17.83805583
O       11.74906717      47.24648265      16.40652519
O       12.78000365      49.57040671      15.38031842
O       10.12150733      49.44797148      16.05193900
O        1.70656738      48.84323481      19.92024648
O        8.52444641      47.43333810      17.42159710
O        3.36913280      46.76431325      19.55084147
O        3.79815442      50.63818860      20.02783564
O        5.35071825      49.34715274      17.75537594
O        5.19419627      47.18840707      16.14176716
O        1.67025449      47.43297564      16.76614341
O        3.91186899      49.56220269      15.55226496
O       11.88707150      44.29313364      17.64556190
O        6.25996015      49.82995211      21.18925248
O        5.77165194      47.26999880      19.06361931
O       13.28848565      44.48204997      15.45514119
O        9.80085431      47.05915710      13.45281760
O        3.76609946      44.52528027       4.14901945
O       11.88599177      47.24564999      10.62418040
O        1.69690974      42.48595602       5.55848477
O        5.08835534      42.23005168       4.96065675
O        5.09006454      44.56841986       6.41732247
O        7.16290326      42.46587327       7.85500329
O        8.47921764      44.77073954       7.04156569
O        8.48222908      42.47766741       5.55645535
O        9.79801442      42.46946057       7.85958585
O       11.87138218      42.23155406       4.97136030
O        1.69733026      44.77110747       7.05960135
O       11.87120584      44.57227289       6.42082485
O        3.01661539      47.57092925       7.85421770
O        1.69935146      49.88159039       7.05786652
O        1.69787286      47.59650027       5.55593163
O        5.08708022      47.33937972       4.95627058
O        5.08557450      49.67396642       6.41804258
O        7.16127545      47.57380114       7.86105881
O       13.21842146      50.07896348       9.80995722
O        8.48016719      49.88206053       7.06005960
O        0.38345760      47.56961084       7.85559247
O        8.48217482      47.59606080       5.56336193
O        3.01491975      42.46076315       7.85614893
O       13.19251216      49.63794011       4.14198194
O        3.01154205      41.82472758       2.33740152
O        0.38035119      41.82678185       2.33857989
O        1.69528193      44.73714564       1.52036334
O        6.40928184      44.52465684       4.14600805
O        7.16360864      41.82236671       2.33910361
O        8.48334142      44.73947585       1.52065793
O       10.54923482      44.52427869       4.15117980
O        9.79517932      41.82239737       2.33821983
O        0.37964581      42.45983311       7.85683631
O       13.19184747      44.52557666       4.15085247
O        3.76573320      49.63632532       4.14649904
O        3.01303421      46.93159255       2.33602675
O        0.38123292      46.93154145       2.33753245
O        6.40863072      49.63565078       4.14888852
O        8.48005867      49.84802716       1.52386573
O        7.16520932      46.93300294       2.34119850
O       10.54932978      49.63594717       4.14947770
O        9.79593897      46.93278831       2.34224594
O        1.69400682      49.85264670       1.51997055
O        9.79848920      47.57488448       7.86632876
O        8.47876999      46.88652133      32.69052862
O        9.79572248      41.90709118      13.49478893
O        3.75017406      50.07730780       9.82635625
O        1.71505982      47.00777414      11.21199225
O        1.70553713      49.84108762      12.72459797
O       11.88779592      42.12686824      10.68922006
O       11.86748900      44.91678662      12.06965157
O       10.55017081      44.96762205       9.79571855
O       11.87428511      47.33965567       4.95509221
O       13.21577627      44.96220533       9.81192118
O        1.69619079      46.88618406      32.68696077
O        5.08027055      47.24723413      10.62725726
O        6.41420596      50.08782442       9.80128309
O        5.10353466      50.02026870      12.08287554
O        8.48853684      44.72355274      12.68067083
O        8.47943468      41.90996430      11.18750827
O        3.03561256      47.04001799      13.51080852
O        8.48433167      49.83487372      12.65425563
O        5.08309209      42.13893833      10.63812448
O       11.87754073      49.67308748       6.41463839
O        3.03789330      41.94355537      13.47204262
O        0.40020972      41.92549999      13.52861983
O        7.16814496      41.91535584      13.50596083
O        1.69151084      41.90350511      11.20331811
O        3.75519314      44.96605835       9.80187227
O        8.47550080      46.99879056      11.15703423
O        6.41826192      44.97073922       9.79529302
O        7.16708462      47.02245503      13.46538509
O        5.09546344      44.90758842      12.06251587
O        1.70894197      44.73565349      12.72580907
O        0.39085611      47.05588349      13.50669792
Si       1.69529550      41.25281373       1.49794152
Si       5.08577797      50.72606756      10.54038497
Si       1.70844006      46.38031334      12.74004775
Si      11.88239702      50.71754389      10.52729193
Si       8.47913625      41.24731525       1.49941448
Si       8.48370768      46.36383833      12.67743030
Si       8.48050632      48.24120260       7.07956823
Si       5.03797724      43.72999445      16.19660674
Si       5.08632058      48.97899078       4.87332620
Si       5.24613292      48.81390336      16.12283891
Si      11.87337625      48.97910320       4.87002021
Si       1.69958206      48.24070181       7.07223613
Si       1.71234680      41.26160313      12.72381238
Si      11.87092097      43.87028617       4.87879254
Si       1.69663844      46.35780839       1.49862890
Si       8.48066910      43.13012690       7.06840641
Si       5.08686318      45.61402094      10.52310216
Si      11.93147540      43.76793465      16.02247260
Si       8.47630114      41.25869036      12.70364911
Si       1.69695044      43.13011668       7.07475654
Si      11.88017235      45.61252878      10.52385501
Si       8.48103536      46.35945385       1.50114931
Si       5.08846386      43.86946856       4.87440637
Si      11.64133350      48.86352644      16.30628266
Ca       0.02632981      48.53276532      11.49689671
Ca       3.38499340      45.98855237      17.23192942
Ca       1.77418393      48.62657203      14.71171697
Ca      11.88424187      48.54251542       8.31123012
Ca      10.15777383      46.05758914       5.82849591
Ca       8.45085043      48.63236413      14.56478634
Ca       8.47582637      51.10018930       9.02581530
Ca       6.80322524      46.05739495       5.82620462
Ca       5.08166776      48.54493761       8.32052618
Ca      13.55893900      46.00944293      17.22150241
Ca       1.70127770      51.09450685       9.03612606
Ca       0.02399662      46.05568817       5.83212922
Ca      11.87888367      43.43466931       8.31430699
Ca      10.15910321      40.94120914       5.83703911
Ca       8.47711505      45.96753869       9.01295139
Ca       6.80201795      40.94236402       5.83314393
Ca       0.02456635      43.44850750      11.50884411
Ca       3.38395767      43.43407654      11.49035020
Ca       3.63472013      50.93954551      17.49165963
Ca       0.08848574      51.08631176      16.93311578
Ca       6.78819514      48.52991388      11.44773236
Ca       5.10608349      45.98143395      14.00993573
Ca      10.15845208      48.52667406      11.41261029
Ca      11.87513882      46.08589850      13.95934166
Ca       1.75252896      43.54847023      14.65874790
Ca       3.39175759      48.54089040      11.51440865
Ca       6.88371447      40.92515057      17.17973366
Ca      11.88403004      40.98680947      13.88671585
Ca      10.16789338      43.43188941      11.47323105
Ca       8.47523199      43.58230332      14.68117655
Ca       6.74182140      45.91638843      17.33590033
Ca       6.78956521      43.42686105      11.46943407
Ca       5.07567410      40.93829884      14.01329254
Ca      10.33151652      41.15264424      17.51129988
Ca      10.17130297      45.83894284      17.33119135
Ca       5.08469277      43.43297275       8.31610728
Ca       1.70533366      45.98587378       9.03576600
Ca       3.37383813      46.05486034       5.83327486
Ca       0.02401019      40.94376419       5.83039440
Ca       8.47997728      43.50628246       3.35914932
Ca      11.87136862      40.97746029       2.69942396
Ca      11.87191122      46.08474429       2.70106059
Ca       5.08660544      40.97853342       2.70161705
Ca       8.47995015      48.61703112       3.36281537
Ca       1.69817129      48.61587623       3.35649798
Ca       5.08800265      46.08639997       2.70011135
Ca       1.69731669      43.50850025       3.36062228
Ca       3.37227814      40.94533811       5.83252201
H       25.23301493       2.65289955      18.38441646
H       25.26258071       6.33732925      19.84843599
H       22.73333365       6.79001153      20.34195408
H       13.69999472       7.76725443      20.19350335
H       25.78198646       8.31050193      18.70091104
H       19.12267271       7.62215881      18.41572424
H       25.98997907       8.45615782      20.86168147
H       18.21760385       9.40376541      20.38148876
H       19.96675015       6.51700575      19.79485712
H       22.00727680       6.90627367      18.90115617
H       20.49500612       8.31657663      20.84776277
H       22.16568065       8.78747650      19.39792509
H       15.26516264       7.43790923      17.22800585
H       19.80773964       8.81145390      22.15315001
H       22.57270318       7.34765736      17.09008806
H       16.63812640       9.12334398      20.27048253
H       19.24523254       2.19919013      18.60792328
H       14.55704504       3.92607761      18.89566163
H       26.47298589       1.23259289      19.34949816
H       25.54587574       4.82995987      19.69896797
H       22.03862163       0.15737207      19.67255658
H       21.96457489       2.37802670      19.80257367
H       21.97456513       1.96226818      21.38439224
H       24.40766255       1.79156754      19.96415633
H       20.06928559       1.39896855      19.75994277
H       14.42730557       4.43959749      20.39579661
H       15.23331685       3.73594690      17.75268296
H       17.32674267       2.58364189      18.93226241
H       16.76731658       5.22878723      20.27487585
H       15.20867687       8.39166841      18.99835158
H       17.96516615       6.10634337      19.52621041
H       15.85186552       7.14293878      19.77869186
H       14.51567573       1.52360955      19.28219490
H       16.32115772       3.14566806      20.71403286
H       16.35070536       3.72092300      22.20444970
H       17.13172251       1.29239601      19.88003260
C       22.07850049       3.01601647      17.34874855
O       22.14071101       9.69021530      18.94977690
O       17.27073249       3.53154393      15.50856032
O       22.04352143       0.89594624      32.69065955
O       15.26025041       0.89570096      32.68836827
O       21.98957324       7.24221530      19.89915900
O       18.64732084       1.19951643      16.23116850
O       25.42469826       9.09459431      12.05348167
O       24.83999321       5.49936087      19.52704453
O       26.24149644       7.76594166      20.22066106
O       22.09125747       1.71483661      17.07208947
O       22.05988896       3.38209596      18.59376536
O       18.59335953       3.42263792      17.78291411
O       19.90556869       3.53703382      15.46432798
O       24.20856637       3.61932802      15.34090473
O       20.12862430       8.68374508      15.48241686
O       25.46296764       1.25410952      16.07756871
O       19.49742256       1.27598322      18.96845471
O       21.79107112       1.63117756      20.48851246
O       13.82395375       0.85181554      19.11887562
O       24.89638561       1.53427460      19.16478091
O       16.67375026       2.08929587      19.50253930
O       13.88155525       4.35187712      19.58451224
O       16.08164629       3.93762954      21.29635712
O       24.11756744       9.21843284       9.77876306
O       25.52881378       8.75078082      17.83805583
O       25.31414417       6.36556265      16.40652519
O       26.34508065       8.68948671      15.38031842
O       23.68658433       8.56705148      16.05193900
O       15.27164438       7.96231481      19.92024648
O       22.08952341       6.55241810      17.42159710
O       16.93420980       5.88339325      19.55084147
O       17.36323142       9.75726860      20.02783564
O       18.91579525       8.46623274      17.75537594
O       18.75927327       6.30748707      16.14176716
O       15.23533149       6.55205564      16.76614341
O       17.47694599       8.68128269      15.55226496
O       25.45214850       3.41221364      17.64556190
O       19.82503715       8.94903211      21.18925248
O       19.33672894       6.38907880      19.06361931
O       26.85356265       3.60112997      15.45514119
O       23.36593131       6.17823710      13.45281760
O       17.33117646       3.64436027       4.14901945
O       25.45106877       6.36472999      10.62418040
O       15.26198674       1.60503602       5.55848477
O       18.65343234       1.34913168       4.96065675
O       18.65514154       3.68749986       6.41732247
O       20.72798026       1.58495327       7.85500329
O       22.04429464       3.88981954       7.04156569
O       22.04730608       1.59674741       5.55645535
O       23.36309142       1.58854057       7.85958585
O       25.43645918       1.35063406       4.97136030
O       15.26240726       3.89018747       7.05960135
O       25.43628284       3.69135289       6.42082485
O       16.58169239       6.69000925       7.85421770
O       15.26442846       9.00067039       7.05786652
O       15.26294986       6.71558027       5.55593163
O       18.65215722       6.45845972       4.95627058
O       18.65065150       8.79304642       6.41804258
O       20.72635245       6.69288114       7.86105881
O       26.78349846       9.19804348       9.80995722
O       22.04524419       9.00114053       7.06005960
O       13.94853460       6.68869084       7.85559247
O       22.04725182       6.71514080       5.56336193
O       16.57999675       1.57984315       7.85614893
O       26.75758916       8.75702011       4.14198194
O       16.57661905       0.94380758       2.33740152
O       13.94542819       0.94586185       2.33857989
O       15.26035893       3.85622564       1.52036334
O       19.97435884       3.64373684       4.14600805
O       20.72868564       0.94144671       2.33910361
O       22.04841842       3.85855585       1.52065793
O       24.11431182       3.64335869       4.15117980
O       23.36025632       0.94147737       2.33821983
O       13.94472281       1.57891311       7.85683631
O       26.75692447       3.64465666       4.15085247
O       17.33081020       8.75540532       4.14649904
O       16.57811121       6.05067255       2.33602675
O       13.94630992       6.05062145       2.33753245
O       19.97370772       8.75473078       4.14888852
O       22.04513567       8.96710716       1.52386573
O       20.73028632       6.05208294       2.34119850
O       24.11440678       8.75502717       4.14947770
O       23.36101597       6.05186831       2.34224594
O       15.25908382       8.97172670       1.51997055
O       23.36356620       6.69396448       7.86632876
O       22.04384699       6.00560133      32.69052862
O       23.36079948       1.02617118      13.49478893
O       17.31525106       9.19638780       9.82635625
O       15.28013682       6.12685414      11.21199225
O       15.27061413       8.96016762      12.72459797
O       25.45287292       1.24594824      10.68922006
O       25.43256600       4.03586662      12.06965157
O       24.11524781       4.08670205       9.79571855
O       25.43936211       6.45873567       4.95509221
O       26.78085327       4.08128533       9.81192118
O       15.26126779       6.00526406      32.68696077
O       18.64534755       6.36631413      10.62725726
O       19.97928296       9.20690442       9.80128309
O       18.66861166       9.13934870      12.08287554
O       22.05361384       3.84263274      12.68067083
O       22.04451168       1.02904430      11.18750827
O       16.60068956       6.15909799      13.51080852
O       22.04940867       8.95395372      12.65425563
O       18.64816909       1.25801833      10.63812448
O       25.44261773       8.79216748       6.41463839
O       16.60297030       1.06263537      13.47204262
O       13.96528672       1.04457999      13.52861983
O       20.73322196       1.03443584      13.50596083
O       15.25658784       1.02258511      11.20331811
O       17.32027014       4.08513835       9.80187227
O       22.04057780       6.11787056      11.15703423
O       19.98333892       4.08981922       9.79529302
O       20.73216162       6.14153503      13.46538509
O       18.66054044       4.02666842      12.06251587
O       15.27401897       3.85473349      12.72580907
O       13.95593311       6.17496349      13.50669792
Si      15.26037250       0.37189373       1.49794152
Si      18.65085497       9.84514756      10.54038497
Si      15.27351706       5.49939334      12.74004775
Si      25.44747402       9.83662389      10.52729193
Si      22.04421325       0.36639525       1.49941448
Si      22.04878468       5.48291833      12.67743030
Si      22.04558332       7.36028260       7.07956823
Si      18.60305424       2.84907445      16.19660674
Si      18.65139758       8.09807078       4.87332620
Si      18.81120992       7.93298336      16.12283891
Si      25.43845325       8.09818320       4.87002021
Si      15.26465906       7.35978181       7.07223613
Si      15.27742380       0.38068313      12.72381238
Si      25.43599797       2.98936617       4.87879254
Si      15.26171544       5.47688839       1.49862890
Si      22.04574610       2.24920690       7.06840641
Si      18.65194018       4.73310094      10.52310216
Si      25.49655240       2.88701465      16.02247260
Si      22.04137814       0.37777036      12.70364911
Si      15.26202744       2.24919668       7.07475654
Si      25.44524935       4.73160878      10.52385501
Si      22.04611236       5.47853385       1.50114931
Si      18.65354086       2.98854856       4.87440637
Si      25.20641050       7.98260644      16.30628266
Ca      13.59140681       7.65184532      11.49689671
Ca      16.95007040       5.10763237      17.23192942
Ca      15.33926093       7.74565203      14.71171697
Ca      25.44931887       7.66159542       8.31123012
Ca      23.72285083       5.17666914       5.82849591
Ca      22.01592743       7.75144413      14.56478634
Ca      22.04090337      10.21926930       9.02581530
Ca      20.36830224       5.17647495       5.82620462
Ca      18.64674476       7.66401761       8.32052618
Ca      27.12401600       5.12852293      17.22150241
Ca      15.26635470      10.21358685       9.03612606
Ca      13.58907362       5.17476817       5.83212922
Ca      25.44396067       2.55374931       8.31430699
Ca      23.72418021       0.06028914       5.83703911
Ca      22.04219205       5.08661869       9.01295139
Ca      20.36709495       0.06144402       5.83314393
Ca      13.58964335       2.56758750      11.50884411
Ca      16.94903467       2.55315654      11.49035020
Ca      17.19979713      10.05862551      17.49165963
Ca      13.65356274      10.20539176      16.93311578
Ca      20.35327214       7.64899388      11.44773236
Ca      18.67116049       5.10051395      14.00993573
Ca      23.72352908       7.64575406      11.41261029
Ca      25.44021582       5.20497850      13.95934166
Ca      15.31760596       2.66755023      14.65874790
Ca      16.95683459       7.65997040      11.51440865
Ca      20.44879147       0.04423057      17.17973366
Ca      25.44910704       0.10588947      13.88671585
Ca      23.73297038       2.55096941      11.47323105
Ca      22.04030899       2.70138332      14.68117655
Ca      20.30689840       5.03546843      17.33590033
Ca      20.35464221       2.54594105      11.46943407
Ca      18.64075110       0.05737884      14.01329254
Ca      23.89659352       0.27172424      17.51129988
Ca      23.73637997       4.95802284      17.33119135
Ca      18.64976977       2.55205275       8.31610728
Ca      15.27041066       5.10495378       9.03576600
Ca      16.93891513       5.17394034       5.83327486
Ca      13.58908719       0.06284419       5.83039440
Ca      22.04505428       2.62536246       3.35914932
Ca      25.43644562       0.09654029       2.69942396
Ca      25.43698822       5.20382429       2.70106059
Ca      18.65168244       0.09761342       2.70161705
Ca      22.04502715       7.73611112       3.36281537
Ca      15.26324829       7.73495623       3.35649798
Ca      18.65307965       5.20547997       2.70011135
Ca      15.26239369       2.62758025       3.36062228
Ca      16.93735514       0.06441811       5.83252201
H       25.23301493      12.87312955      18.38441646
H       25.26258071      16.55755925      19.84843599
H       22.73333365      17.01024153      20.34195408
H       13.69999472      17.98748443      20.19350335
H       25.78198646      18.53073193      18.70091104
H       19.12267271      17.84238881      18.41572424
H       25.98997907      18.67638782      20.86168147
H       18.21760385      19.62399541      20.38148876
H       19.96675015      16.73723575      19.79485712
H       22.00727680      17.12650367      18.90115617
H       20.49500612      18.53680663      20.84776277
H       22.16568065      19.00770650      19.39792509
H       15.26516264      17.65813923      17.22800585
H       19.80773964      19.03168390      22.15315001
H       22.57270318      17.56788736      17.09008806
H       16.63812640      19.34357398      20.27048253
H       19.24523254      12.41942013      18.60792328
H       14.55704504      14.14630761      18.89566163
H       26.47298589      11.45282289      19.34949816
H       25.54587574      15.05018987      19.69896797
H       22.03862163      10.37760207      19.67255658
H       21.96457489      12.59825670      19.80257367
H       21.97456513      12.18249818      21.38439224
H       24.40766255      12.01179754      19.96415633
H       20.06928559      11.61919855      19.75994277
H       14.42730557      14.65982749      20.39579661
H       15.23331685      13.95617690      17.75268296
H       17.32674267      12.80387189      18.93226241
H       16.76731658      15.44901723      20.27487585
H       15.20867687      18.61189841      18.99835158
H       17.96516615      16.32657337      19.52621041
H       15.85186552      17.36316878      19.77869186
H       14.51567573      11.74383955      19.28219490
H       16.32115772      13.36589806      20.71403286
H       16.35070536      13.94115300      22.20444970
H       17.13172251      11.51262601      19.88003260
C       22.07850049      13.23624647      17.34874855
O       22.14071101      19.91044530      18.94977690
O       17.27073249      13.75177393      15.50856032
O       22.04352143      11.11617624      32.69065955
O       15.26025041      11.11593096      32.68836827
O       21.98957324      17.46244530      19.89915900
O       18.64732084      11.41974643      16.23116850
O       25.42469826      19.31482431      12.05348167
O       24.83999321      15.71959087      19.52704453
O       26.24149644      17.98617166      20.22066106
O       22.09125747      11.93506661      17.07208947
O       22.05988896      13.60232596      18.59376536
O       18.59335953      13.64286792      17.78291411
O       19.90556869      13.75726382      15.46432798
O       24.20856637      13.83955802      15.34090473
O       20.12862430      18.90397508      15.48241686
O       25.46296764      11.47433952      16.07756871
O       19.49742256      11.49621322      18.96845471
O       21.79107112      11.85140756      20.48851246
O       13.82395375      11.07204554      19.11887562
O       24.89638561      11.75450460      19.16478091
O       16.67375026      12.30952587      19.50253930
O       13.88155525      14.57210712      19.58451224
O       16.08164629      14.15785954      21.29635712
O       24.11756744      19.43866284       9.77876306
O       25.52881378      18.97101082      17.83805583
O       25.31414417      16.58579265      16.40652519
O       26.34508065      18.90971671      15.38031842
O       23.68658433      18.78728148      16.05193900
O       15.27164438      18.18254481      19.92024648
O       22.08952341      16.77264810      17.42159710
O       16.93420980      16.10362325      19.55084147
O       17.36323142      19.97749860      20.02783564
O       18.91579525      18.68646274      17.75537594
O       18.75927327      16.52771707      16.14176716
O       15.23533149      16.77228564      16.76614341
O       17.47694599      18.90151269      15.55226496
O       25.45214850      13.63244364      17.64556190
O       19.82503715      19.16926211      21.18925248
O       19.33672894      16.60930880      19.06361931
O       26.85356265      13.82135997      15.45514119
O       23.36593131      16.39846710      13.45281760
O       17.33117646      13.86459027       4.14901945
O       25.45106877      16.58495999      10.62418040
O       15.26198674      11.82526602       5.55848477
O       18.65343234      11.56936168       4.96065675
O       18.65514154      13.90772986       6.41732247
O       20.72798026      11.80518327       7.85500329
O       22.04429464      14.11004954       7.04156569
O       22.04730608      11.81697741       5.55645535
O       23.36309142      11.80877057       7.85958585
O       25.43645918      11.57086406       4.97136030
O       15.26240726      14.11041747       7.05960135
O       25.43628284      13.91158289       6.42082485
O       16.58169239      16.91023925       7.85421770
O       15.26442846      19.22090039       7.05786652
O       15.26294986      16.93581027       5.55593163
O       18.65215722      16.67868972       4.95627058
O       18.65065150      19.01327642       6.41804258
O       20.72635245      16.91311114       7.86105881
O       26.78349846      19.41827348       9.80995722
O       22.04524419      19.22137053       7.06005960
O       13.94853460      16.90892084       7.85559247
O       22.04725182      16.93537080       5.56336193
O       16.57999675      11.80007315       7.85614893
O       26.75758916      18.97725011       4.14198194
O       16.57661905      11.16403758       2.33740152
O       13.94542819      11.16609185       2.33857989
O       15.26035893      14.07645564       1.52036334
O       19.97435884      13.86396684       4.14600805
O       20.72868564      11.16167671       2.33910361
O       22.04841842      14.07878585       1.52065793
O       24.11431182      13.86358869       4.15117980
O       23.36025632      11.16170737       2.33821983
O       13.94472281      11.79914311       7.85683631
O       26.75692447      13.86488666       4.15085247
O       17.33081020      18.97563532       4.14649904
O       16.57811121      16.27090255       2.33602675
O       13.94630992      16.27085145       2.33753245
O       19.97370772      18.97496078       4.14888852
O       22.04513567      19.18733716       1.52386573
O       20.73028632      16.27231294       2.34119850
O       24.11440678      18.97525717       4.14947770
O       23.36101597      16.27209831       2.34224594
O       15.25908382      19.19195670       1.51997055
O       23.36356620      16.91419448       7.86632876
O       22.04384699      16.22583133      32.69052862
O       23.36079948      11.24640118      13.49478893
O       17.31525106      19.41661780       9.82635625
O       15.28013682      16.34708414      11.21199225
O       15.27061413      19.18039762      12.72459797
O       25.45287292      11.46617824      10.68922006
O       25.43256600      14.25609662      12.06965157
O       24.11524781      14.30693205       9.79571855
O       25.43936211      16.67896567       4.95509221
O       26.78085327      14.30151533       9.81192118
O       15.26126779      16.22549406      32.68696077
O       18.64534755      16.58654413      10.62725726
O       19.97928296      19.42713442       9.80128309
O       18.66861166      19.35957870      12.08287554
O       22.05361384      14.06286274      12.68067083
O       22.04451168      11.24927430      11.18750827
O       16.60068956      16.37932799      13.51080852
O       22.04940867      19.17418372      12.65425563
O       18.64816909      11.47824833      10.63812448
O       25.44261773      19.01239748       6.41463839
O       16.60297030      11.28286537      13.47204262
O       13.96528672      11.26480999      13.52861983
O       20.73322196      11.25466584      13.50596083
O       15.25658784      11.24281511      11.20331811
O       17.32027014      14.30536835       9.80187227
O       22.04057780      16.33810056      11.15703423
O       19.98333892      14.31004922       9.79529302
O       20.73216162      16.36176503      13.46538509
O       18.66054044      14.24689842      12.06251587
O       15.27401897      14.07496349      12.72580907
O       13.95593311      16.39519349      13.50669792
Si      15.26037250      10.59212373       1.49794152
Si      18.65085497      20.06537756      10.54038497
Si      15.27351706      15.71962334      12.74004775
Si      25.44747402      20.05685389      10.52729193
Si      22.04421325      10.58662525       1.49941448
Si      22.04878468      15.70314833      12.67743030
Si      22.04558332      17.58051260       7.07956823
Si      18.60305424      13.06930445      16.19660674
Si      18.65139758      18.31830078       4.87332620
Si      18.81120992      18.15321336      16.12283891
Si      25.43845325      18.31841320       4.87002021
Si      15.26465906      17.58001181       7.07223613
Si      15.27742380      10.60091313      12.72381238
Si      25.43599797      13.20959617       4.87879254
Si      15.26171544      15.69711839       1.49862890
Si      22.04574610      12.46943690       7.06840641
Si      18.65194018      14.95333094      10.52310216
Si      25.49655240      13.10724465      16.02247260
Si      22.04137814      10.59800036      12.70364911
Si      15.26202744      12.46942668       7.07475654
Si      25.44524935      14.95183878      10.52385501
Si      22.04611236      15.69876385       1.50114931
Si      18.65354086      13.20877856       4.87440637
Si      25.20641050      18.20283644      16.30628266
Ca      13.59140681      17.87207532      11.49689671
Ca      16.95007040      15.32786237      17.23192942
Ca      15.33926093      17.96588203      14.71171697
Ca      25.44931887      17.88182542       8.31123012
Ca      23.72285083      15.39689914       5.82849591
Ca      22.01592743      17.97167413      14.56478634
Ca      22.04090337      20.43949930       9.02581530
Ca      20.36830224      15.39670495       5.82620462
Ca      18.64674476      17.88424761       8.32052618
Ca      27.12401600      15.34875293      17.22150241
Ca      15.26635470      20.43381685       9.03612606
Ca      13.58907362      15.39499817       5.83212922
Ca      25.44396067      12.77397931       8.31430699
Ca      23.72418021      10.28051914       5.83703911
Ca      22.04219205      15.30684869       9.01295139
Ca      20.36709495      10.28167402       5.83314393
Ca      13.58964335      12.78781750      11.50884411
Ca      16.94903467      12.77338654      11.49035020
Ca      17.19979713      20.27885551      17.49165963
Ca      13.65356274      20.42562176      16.93311578
Ca      20.35327214      17.86922388      11.44773236
Ca      18.67116049      15.32074395      14.00993573
Ca      23.72352908      17.86598406      11.41261029
Ca      25.44021582      15.42520850      13.95934166
Ca      15.31760596      12.88778023      14.65874790
Ca      16.95683459      17.88020040      11.51440865
Ca      20.44879147      10.26446057      17.17973366
Ca      25.44910704      10.32611947      13.88671585
Ca      23.73297038      12.77119941      11.47323105
Ca      22.04030899      12.92161332      14.68117655
Ca      20.30689840      15.25569843      17.33590033
Ca      20.35464221      12.76617105      11.46943407
Ca      18.64075110      10.27760884      14.01329254
Ca      23.89659352      10.49195424      17.51129988
Ca      23.73637997      15.17825284      17.33119135
Ca      18.64976977      12.77228275       8.31610728
Ca      15.27041066      15.32518378       9.03576600
Ca      16.93891513      15.39417034       5.83327486
Ca      13.58908719      10.28307419       5.83039440
Ca      22.04505428      12.84559246       3.35914932
Ca      25.43644562      10.31677029       2.69942396
Ca      25.43698822      15.42405429       2.70106059
Ca      18.65168244      10.31784342       2.70161705
Ca      22.04502715      17.95634112       3.36281537
Ca      15.26324829      17.95518623       3.35649798
Ca      18.65307965      15.42570997       2.70011135
Ca      15.26239369      12.84781025       3.36062228
Ca      16.93735514      10.28464811       5.83252201
H       25.23301493      23.09335955      18.38441646
H       25.26258071      26.77778925      19.84843599
H       22.73333365      27.23047153      20.34195408
H       13.69999472      28.20771443      20.19350335
H       25.78198646      28.75096193      18.70091104
H       19.12267271      28.06261881      18.41572424
H       25.98997907      28.89661782      20.86168147
H       18.21760385      29.84422541      20.38148876
H       19.96675015      26.95746575      19.79485712
H       22.00727680      27.34673367      18.90115617
H       20.49500612      28.75703663      20.84776277
H       22.16568065      29.22793650      19.39792509
H       15.26516264      27.87836923      17.22800585
H       19.80773964      29.25191390      22.15315001
H       22.57270318      27.78811736      17.09008806
H       16.63812640      29.56380398      20.27048253
H       19.24523254      22.63965013      18.60792328
H       14.55704504      24.36653761      18.89566163
H       26.47298589      21.67305289      19.34949816
H       25.54587574      25.27041987      19.69896797
H       22.03862163      20.59783207      19.67255658
H       21.96457489      22.81848670      19.80257367
H       21.97456513      22.40272818      21.38439224
H       24.40766255      22.23202754      19.96415633
H       20.06928559      21.83942855      19.75994277
H       14.42730557      24.88005749      20.39579661
H       15.23331685      24.17640690      17.75268296
H       17.32674267      23.02410189      18.93226241
H       16.76731658      25.66924723      20.27487585
H       15.20867687      28.83212841      18.99835158
H       17.96516615      26.54680337      19.52621041
H       15.85186552      27.58339878      19.77869186
H       14.51567573      21.96406955      19.28219490
H       16.32115772      23.58612806      20.71403286
H       16.35070536      24.16138300      22.20444970
H       17.13172251      21.73285601      19.88003260
C       22.07850049      23.45647647      17.34874855
O       22.14071101      30.13067530      18.94977690
O       17.27073249      23.97200393      15.50856032
O       22.04352143      21.33640624      32.69065955
O       15.26025041      21.33616096      32.68836827
O       21.98957324      27.68267530      19.89915900
O       18.64732084      21.63997643      16.23116850
O       25.42469826      29.53505431      12.05348167
O       24.83999321      25.93982087      19.52704453
O       26.24149644      28.20640166      20.22066106
O       22.09125747      22.15529661      17.07208947
O       22.05988896      23.82255596      18.59376536
O       18.59335953      23.86309792      17.78291411
O       19.90556869      23.97749382      15.46432798
O       24.20856637      24.05978802      15.34090473
O       20.12862430      29.12420508      15.48241686
O       25.46296764      21.69456952      16.07756871
O       19.49742256      21.71644322      18.96845471
O       21.79107112      22.07163756      20.48851246
O       13.82395375      21.29227554      19.11887562
O       24.89638561      21.97473460      19.16478091
O       16.67375026      22.52975587      19.50253930
O       13.88155525      24.79233712      19.58451224
O       16.08164629      24.37808954      21.29635712
O       24.11756744      29.65889284       9.77876306
O       25.52881378      29.19124082      17.83805583
O       25.31414417      26.80602265      16.40652519
O       26.34508065      29.12994671      15.38031842
O       23.68658433      29.00751148      16.05193900
O       15.27164438      28.40277481      19.92024648
O       22.08952341      26.99287810      17.42159710
O       16.93420980      26.32385325      19.55084147
O       17.36323142      30.19772860      20.02783564
O       18.91579525      28.90669274      17.75537594
O       18.75927327      26.74794707      16.14176716
O       15.23533149      26.99251564      16.76614341
O       17.47694599      29.12174269      15.55226496
O       25.45214850      23.85267364      17.64556190
O       19.82503715      29.38949211      21.18925248
O       19.33672894      26.82953880      19.06361931
O       26.85356265      24.04158997      15.45514119
O       23.36593131      26.61869710      13.45281760
O       17.33117646      24.08482027       4.14901945
O       25.45106877      26.80518999      10.62418040
O       15.26198674      22.04549602       5.55848477
O       18.65343234      21.78959168       4.96065675
O       18.65514154      24.12795986       6.41732247
O       20.72798026      22.02541327       7.85500329
O       22.04429464      24.33027954       7.04156569
O       22.04730608      22.03720741       5.55645535
O       23.36309142      22.02900057       7.85958585
O       25.43645918      21.79109406       4.97136030
O       15.26240726      24.33064747       7.05960135
O       25.43628284      24.13181289       6.42082485
O       16.58169239      27.13046925       7.85421770
O       15.26442846      29.44113039       7.05786652
O       15.26294986      27.15604027       5.55593163
O       18.65215722      26.89891972       4.95627058
O       18.65065150      29.23350642       6.41804258
O       20.72635245      27.13334114       7.86105881
O       26.78349846      29.63850348       9.80995722
O       22.04524419      29.44160053       7.06005960
O       13.94853460      27.12915084       7.85559247
O       22.04725182      27.15560080       5.56336193
O       16.57999675      22.02030315       7.85614893
O       26.75758916      29.19748011       4.14198194
O       16.57661905      21.38426758       2.33740152
O       13.94542819      21.38632185       2.33857989
O       15.26035893      24.29668564       1.52036334
O       19.97435884      24.08419684       4.14600805
O       20.72868564      21.38190671       2.33910361
O       22.04841842      24.29901585       1.52065793
O       24.11431182      24.08381869       4.15117980
O       23.36025632      21.38193737       2.33821983
O       13.94472281      22.01937311       7.85683631
O       26.75692447      24.08511666       4.15085247
O       17.33081020      29.19586532       4.14649904
O       16.57811121      26.49113255       2.33602675
O       13.94630992      26.49108145       2.33753245
O       19.97370772      29.19519078       4.14888852
O       22.04513567      29.40756716       1.52386573
O       20.73028632      26.49254294       2.34119850
O       24.11440678      29.19548717       4.14947770
O       23.36101597      26.49232831       2.34224594
O       15.25908382      29.41218670       1.51997055
O       23.36356620      27.13442448       7.86632876
O       22.04384699      26.44606133      32.69052862
O       23.36079948      21.46663118      13.49478893
O       17.31525106      29.63684780       9.82635625
O       15.28013682      26.56731414      11.21199225
O       15.27061413      29.40062762      12.72459797
O       25.45287292      21.68640824      10.68922006
O       25.43256600      24.47632662      12.06965157
O       24.11524781      24.52716205       9.79571855
O       25.43936211      26.89919567       4.95509221
O       26.78085327      24.52174533       9.81192118
O       15.26126779      26.44572406      32.68696077
O       18.64534755      26.80677413      10.62725726
O       19.97928296      29.64736442       9.80128309
O       18.66861166      29.57980870      12.08287554
O       22.05361384      24.28309274      12.68067083
O       22.04451168      21.46950430      11.18750827
O       16.60068956      26.59955799      13.51080852
O       22.04940867      29.39441372      12.65425563
O       18.64816909      21.69847833      10.63812448
O       25.44261773      29.23262748       6.41463839
O       16.60297030      21.50309537      13.47204262
O       13.96528672      21.48503999      13.52861983
O       20.73322196      21.47489584      13.50596083
O       15.25658784      21.46304511      11.20331811
O       17.32027014      24.52559835       9.80187227
O       22.04057780      26.55833056      11.15703423
O       19.98333892      24.53027922       9.79529302
O       20.73216162      26.58199503      13.46538509
O       18.66054044      24.46712842      12.06251587
O       15.27401897      24.29519349      12.72580907
O       13.95593311      26.61542349      13.50669792
Si      15.26037250      20.81235373       1.49794152
Si      18.65085497      30.28560756      10.54038497
Si      15.27351706      25.93985334      12.74004775
Si      25.44747402      30.27708389      10.52729193
Si      22.04421325      20.80685525       1.49941448
Si      22.04878468      25.92337833      12.67743030
Si      22.04558332      27.80074260       7.07956823
Si      18.60305424      23.28953445      16.19660674
Si      18.65139758      28.53853078       4.87332620
Si      18.81120992      28.37344336      16.12283891
Si      25.43845325      28.53864320       4.87002021
Si      15.26465906      27.80024181       7.07223613
Si      15.27742380      20.82114313      12.72381238
Si      25.43599797      23.42982617       4.87879254
Si      15.26171544      25.91734839       1.49862890
Si      22.04574610      22.68966690       7.06840641
Si      18.65194018      25.17356094      10.52310216
Si      25.49655240      23.32747465      16.02247260
Si      22.04137814      20.81823036      12.70364911
Si      15.26202744      22.68965668       7.07475654
Si      25.44524935      25.17206878      10.52385501
Si      22.04611236      25.91899385       1.50114931
Si      18.65354086      23.42900856       4.87440637
Si      25.20641050      28.42306644      16.30628266
Ca      13.59140681      28.09230532      11.49689671
Ca      16.95007040      25.54809237      17.23192942
Ca      15.33926093      28.18611203      14.71171697
Ca      25.44931887      28.10205542       8.31123012
Ca      23.72285083      25.61712914       5.82849591
Ca      22.01592743      28.19190413      14.56478634
Ca      22.04090337      30.65972930       9.02581530
Ca      20.36830224      25.61693495       5.82620462
Ca      18.64674476      28.10447761       8.32052618
Ca      27.12401600      25.56898293      17.22150241
Ca      15.26635470      30.65404685       9.03612606
Ca      13.58907362      25.61522817       5.83212922
Ca      25.44396067      22.99420931       8.31430699
Ca      23.72418021      20.50074914       5.83703911
Ca      22.04219205      25.52707869       9.01295139
Ca      20.36709495      20.50190402       5.83314393
Ca      13.58964335      23.00804750      11.50884411
Ca      16.94903467      22.99361654      11.49035020
Ca      17.19979713      30.49908551      17.49165963
Ca      13.65356274      30.64585176      16.93311578
Ca      20.35327214      28.08945388      11.44773236
Ca      18.67116049      25.54097395      14.00993573
Ca      23.72352908      28.08621406      11.41261029
Ca      25.44021582      25.64543850      13.95934166
Ca      15.31760596      23.10801023      14.65874790
Ca      16.95683459      28.10043040      11.51440865
Ca      20.44879147      20.48469057      17.17973366
Ca      25.44910704      20.54634947      13.88671585
Ca      23.73297038      22.99142941      11.47323105
Ca      22.04030899      23.14184332      14.68117655
Ca      20.30689840      25.47592843      17.33590033
Ca      20.35464221      22.98640105      11.46943407
Ca      18.64075110      20.49783884      14.01329254
Ca      23.89659352      20.71218424      17.51129988
Ca      23.73637997      25.39848284      17.33119135
Ca      18.64976977      22.99251275       8.31610728
Ca      15.27041066      25.54541378       9.03576600
Ca      16.93891513      25.61440034       5.83327486
Ca      13.58908719      20.50330419       5.83039440
Ca      22.04505428      23.06582246       3.35914932
Ca      25.43644562      20.53700029       2.69942396
Ca      25.43698822      25.64428429       2.70106059
Ca      18.65168244      20.53807342       2.70161705
Ca      22.04502715      28.17657112       3.36281537
Ca      15.26324829      28.17541623       3.35649798
Ca      18.65307965      25.64593997       2.70011135
Ca      15.26239369      23.06804025       3.36062228
Ca      16.93735514      20.50487811       5.83252201
H       25.23301493      33.31358955      18.38441646
H       25.26258071      36.99801925      19.84843599
H       22.73333365      37.45070153      20.34195408
H       13.69999472      38.42794443      20.19350335
H       25.78198646      38.97119193      18.70091104
H       19.12267271      38.28284881      18.41572424
H       25.98997907      39.11684782      20.86168147
H       18.21760385      40.06445541      20.38148876
H       19.96675015      37.17769575      19.79485712
H       22.00727680      37.56696367      18.90115617
H       20.49500612      38.97726663      20.84776277
H       22.16568065      39.44816650      19.39792509
H       15.26516264      38.09859923      17.22800585
H       19.80773964      39.47214390      22.15315001
H       22.57270318      38.00834736      17.09008806
H       16.63812640      39.78403398      20.27048253
H       19.24523254      32.85988013      18.60792328
H       14.55704504      34.58676761      18.89566163
H       26.47298589      31.89328289      19.34949816
H       25.54587574      35.49064987      19.69896797
H       22.03862163      30.81806207      19.67255658
H       21.96457489      33.03871670      19.80257367
H       21.97456513      32.62295818      21.38439224
H       24.40766255      32.45225754      19.96415633
H       20.06928559      32.05965855      19.75994277
H       14.42730557      35.10028749      20.39579661
H       15.23331685      34.39663690      17.75268296
H       17.32674267      33.24433189      18.93226241
H       16.76731658      35.88947723      20.27487585
H       15.20867687      39.05235841      18.99835158
H       17.96516615      36.76703337      19.52621041
H       15.85186552      37.80362878      19.77869186
H       14.51567573      32.18429955      19.28219490
H       16.32115772      33.80635806      20.71403286
H       16.35070536      34.38161300      22.20444970
H       17.13172251      31.95308601      19.88003260
C       22.07850049      33.67670647      17.34874855
O       22.14071101      40.35090530      18.94977690
O       17.27073249      34.19223393      15.50856032
O       22.04352143      31.55663624      32.69065955
O       15.26025041      31.55639096      32.68836827
O       21.98957324      37.90290530      19.89915900
O       18.64732084      31.86020643      16.23116850
O       25.42469826      39.75528431      12.05348167
O       24.83999321      36.16005087      19.52704453
O       26.24149644      38.42663166      20.22066106
O       22.09125747      32.37552661      17.07208947
O       22.05988896      34.04278596      18.59376536
O       18.59335953      34.08332792      17.78291411
O       19.90556869      34.19772382      15.46432798
O       24.20856637      34.28001802      15.34090473
O       20.12862430      39.34443508      15.48241686
O       25.46296764      31.91479952      16.07756871
O       19.49742256      31.93667322      18.96845471
O       21.79107112      32.29186756      20.48851246
O       13.82395375      31.51250554      19.11887562
O       24.89638561      32.19496460      19.16478091
O       16.67375026      32.74998587      19.50253930
O       13.88155525      35.01256712      19.58451224
O       16.08164629      34.59831954      21.29635712
O       24.11756744      39.87912284       9.77876306
O       25.52881378      39.41147082      17.83805583
O       25.31414417      37.02625265      16.40652519
O       26.34508065      39.35017671      15.38031842
O       23.68658433      39.22774148      16.05193900
O       15.27164438      38.62300481      19.92024648
O       22.08952341      37.21310810      17.42159710
O       16.93420980      36.54408325      19.55084147
O       17.36323142      40.41795860      20.02783564
O       18.91579525      39.12692274      17.75537594
O       18.75927327      36.96817707      16.14176716
O       15.23533149      37.21274564      16.76614341
O       17.47694599      39.34197269      15.55226496
O       25.45214850      34.07290364      17.64556190
O       19.82503715      39.60972211      21.18925248
O       19.33672894      37.04976880      19.06361931
O       26.85356265      34.26181997      15.45514119
O       23.36593131      36.83892710      13.45281760
O       17.33117646      34.30505027       4.14901945
O       25.45106877      37.02541999      10.62418040
O       15.26198674      32.26572602       5.55848477
O       18.65343234      32.00982168       4.96065675
O       18.65514154      34.34818986       6.41732247
O       20.72798026      32.24564327       7.85500329
O       22.04429464      34.55050954       7.04156569
O       22.04730608      32.25743741       5.55645535
O       23.36309142      32.24923057       7.85958585
O       25.43645918      32.01132406       4.97136030
O       15.26240726      34.55087747       7.05960135
O       25.43628284      34.35204289       6.42082485
O       16.58169239      37.35069925       7.85421770
O       15.26442846      39.66136039       7.05786652
O       15.26294986      37.37627027       5.55593163
O       18.65215722      37.11914972       4.95627058
O       18.65065150      39.45373642       6.41804258
O       20.72635245      37.35357114       7.86105881
O       26.78349846      39.85873348       9.80995722
O       22.04524419      39.66183053       7.06005960
O       13.94853460      37.34938084       7.85559247
O       22.04725182      37.37583080       5.56336193
O       16.57999675      32.24053315       7.85614893
O       26.75758916      39.41771011       4.14198194
O       16.57661905      31.60449758       2.33740152
O       13.94542819      31.60655185       2.33857989
O       15.26035893      34.51691564       1.52036334
O       19.97435884      34.30442684       4.14600805
O       20.72868564      31.60213671       2.33910361
O       22.04841842      34.51924585       1.52065793
O       24.11431182      34.30404869       4.15117980
O       23.36025632      31.60216737       2.33821983
O       13.94472281      32.23960311       7.85683631
O       26.75692447      34.30534666       4.15085247
O       17.33081020      39.41609532       4.14649904
O       16.57811121      36.71136255       2.33602675
O       13.94630992      36.71131145       2.33753245
O       19.97370772      39.41542078       4.14888852
O       22.04513567      39.62779716       1.52386573
O       20.73028632      36.71277294       2.34119850
O       24.11440678      39.41571717       4.14947770
O       23.36101597      36.71255831       2.34224594
O       15.25908382      39.63241670       1.51997055
O       23.36356620      37.35465448       7.86632876
O       22.04384699      36.66629133      32.69052862
O       23.36079948      31.68686118      13.49478893
O       17.31525106      39.85707780       9.82635625
O       15.28013682      36.78754414      11.21199225
O       15.27061413      39.62085762      12.72459797
O       25.45287292      31.90663824      10.68922006
O       25.43256600      34.69655662      12.06965157
O       24.11524781      34.74739205       9.79571855
O       25.43936211      37.11942567       4.95509221
O       26.78085327      34.74197533       9.81192118
O       15.26126779      36.66595406      32.68696077
O       18.64534755      37.02700413      10.62725726
O       19.97928296      39.86759442       9.80128309
O       18.66861166      39.80003870      12.08287554
O       22.05361384      34.50332274      12.68067083
O       22.04451168      31.68973430      11.18750827
O       16.60068956      36.81978799      13.51080852
O       22.04940867      39.61464372      12.65425563
O       18.64816909      31.91870833      10.63812448
O       25.44261773      39.45285748       6.41463839
O       16.60297030      31.72332537      13.47204262
O       13.96528672      31.70526999      13.52861983
O       20.73322196      31.69512584      13.50596083
O       15.25658784      31.68327511      11.20331811
O       17.32027014      34.74582835       9.80187227
O       22.04057780      36.77856056      11.15703423
O       19.98333892      34.75050922       9.79529302
O       20.73216162      36.80222503      13.46538509
O       18.66054044      34.68735842      12.06251587
O       15.27401897      34.51542349      12.72580907
O       13.95593311      36.83565349      13.50669792
Si      15.26037250      31.03258373       1.49794152
Si      18.65085497      40.50583756      10.54038497
Si      15.27351706      36.16008334      12.74004775
Si      25.44747402      40.49731389      10.52729193
Si      22.04421325      31.02708525       1.49941448
Si      22.04878468      36.14360833      12.67743030
Si      22.04558332      38.02097260       7.07956823
Si      18.60305424      33.50976445      16.19660674
Si      18.65139758      38.75876078       4.87332620
Si      18.81120992      38.59367336      16.12283891
Si      25.43845325      38.75887320       4.87002021
Si      15.26465906      38.02047181       7.07223613
Si      15.27742380      31.04137313      12.72381238
Si      25.43599797      33.65005617       4.87879254
Si      15.26171544      36.13757839       1.49862890
Si      22.04574610      32.90989690       7.06840641
Si      18.65194018      35.39379094      10.52310216
Si      25.49655240      33.54770465      16.02247260
Si      22.04137814      31.03846036      12.70364911
Si      15.26202744      32.90988668       7.07475654
Si      25.44524935      35.39229878      10.52385501
Si      22.04611236      36.13922385       1.50114931
Si      18.65354086      33.64923856       4.87440637
Si      25.20641050      38.64329644      16.30628266
Ca      13.59140681      38.31253532      11.49689671
Ca      16.95007040      35.76832237      17.23192942
Ca      15.33926093      38.40634203      14.71171697
Ca      25.44931887      38.32228542       8.31123012
Ca      23.72285083      35.83735914       5.82849591
Ca      22.01592743      38.41213413      14.56478634
Ca      22.04090337      40.87995930       9.02581530
Ca      20.36830224      35.83716495       5.82620462
Ca      18.64674476      38.32470761       8.32052618
Ca      27.12401600      35.78921293      17.22150241
Ca      15.26635470      40.87427685       9.03612606
Ca      13.58907362      35.83545817       5.83212922
Ca      25.44396067      33.21443931       8.31430699
Ca      23.72418021      30.72097914       5.83703911
Ca      22.04219205      35.74730869       9.01295139
Ca      20.36709495      30.72213402       5.83314393
Ca      13.58964335      33.22827750      11.50884411
Ca      16.94903467      33.21384654      11.49035020
Ca      17.19979713      40.71931551      17.49165963
Ca      13.65356274      40.86608176      16.93311578
Ca      20.35327214      38.30968388      11.44773236
Ca      18.67116049      35.76120395      14.00993573
Ca      23.72352908      38.30644406      11.41261029
Ca      25.44021582      35.86566850      13.95934166
Ca      15.31760596      33.32824023      14.65874790
Ca      16.95683459      38.32066040      11.51440865
Ca      20.44879147      30.70492057      17.17973366
Ca      25.44910704      30.76657947      13.88671585
Ca      23.73297038      33.21165941      11.47323105
Ca      22.04030899      33.36207332      14.68117655
Ca      20.30689840      35.69615843      17.33590033
Ca      20.35464221      33.20663105      11.46943407
Ca      18.64075110      30.71806884      14.01329254
Ca      23.89659352      30.93241424      17.51129988
Ca      23.73637997      35.61871284      17.33119135
Ca      18.64976977      33.21274275       8.31610728
Ca      15.27041066      35.76564378       9.03576600
Ca      16.93891513      35.83463034       5.83327486
Ca      13.58908719      30.72353419       5.83039440
Ca      22.04505428      33.28605246       3.35914932
Ca      25.43644562      30.75723029       2.69942396
Ca      25.43698822      35.86451429       2.70106059
Ca      18.65168244      30.75830342       2.70161705
Ca      22.04502715      38.39680112       3.36281537
Ca      15.26324829      38.39564623       3.35649798
Ca      18.65307965      35.86616997       2.70011135
Ca      15.26239369      33.28827025       3.36062228
Ca      16.93735514      30.72510811       5.83252201
H       25.23301493      43.53381955      18.38441646
H       25.26258071      47.21824925      19.84843599
H       22.73333365      47.67093153      20.34195408
H       13.69999472      48.64817443      20.19350335
H       25.78198646      49.19142193      18.70091104
H       19.12267271      48.50307881      18.41572424
H       25.98997907      49.33707782      20.86168147
H       18.21760385      50.28468541      20.38148876
H       19.96675015      47.39792575      19.79485712
H       22.00727680      47.78719367      18.90115617
H       20.49500612      49.19749663      20.84776277
H       22.16568065      49.66839650      19.39792509
H       15.26516264      48.31882923      17.22800585
H       19.80773964      49.69237390      22.15315001
H       22.57270318      48.22857736      17.09008806
H       16.63812640      50.00426398      20.27048253
H       19.24523254      43.08011013      18.60792328
H       14.55704504      44.80699761      18.89566163
H       26.47298589      42.11351289      19.34949816
H       25.54587574      45.71087987      19.69896797
H       22.03862163      41.03829207      19.67255658
H       21.96457489      43.25894670      19.80257367
H       21.97456513      42.84318818      21.38439224
H       24.40766255      42.67248754      19.96415633
H       20.06928559      42.27988855      19.75994277
H       14.42730557      45.32051749      20.39579661
H       15.23331685      44.61686690      17.75268296
H       17.32674267      43.46456189      18.93226241
H       16.76731658      46.10970723      20.27487585
H       15.20867687      49.27258841      18.99835158
H       17.96516615      46.98726337      19.52621041
H       15.85186552      48.02385878      19.77869186
H       14.51567573      42.40452955      19.28219490
H       16.32115772      44.02658806      20.71403286
H       16.35070536      44.60184300      22.20444970
H       17.13172251      42.17331601      19.88003260
C       22.07850049      43.89693647      17.34874855
O       22.14071101      50.57113530      18.94977690
O       17.27073249      44.41246393      15.50856032
O       22.04352143      41.77686624      32.69065955
O       15.26025041      41.77662096      32.68836827
O       21.98957324      48.12313530      19.89915900
O       18.64732084      42.08043643      16.23116850
O       25.42469826      49.97551431      12.05348167
O       24.83999321      46.38028087      19.52704453
O       26.24149644      48.64686166      20.22066106
O       22.09125747      42.59575661      17.07208947
O       22.05988896      44.26301596      18.59376536
O       18.59335953      44.30355792      17.78291411
O       19.90556869      44.41795382      15.46432798
O       24.20856637      44.50024802      15.34090473
O       20.12862430      49.56466508      15.48241686
O       25.46296764      42.13502952      16.07756871
O       19.49742256      42.15690322      18.96845471
O       21.79107112      42.51209756      20.48851246
O       13.82395375      41.73273554      19.11887562
O       24.89638561      42.41519460      19.16478091
O       16.67375026      42.97021587      19.50253930
O       13.88155525      45.23279712      19.58451224
O       16.08164629      44.81854954      21.29635712
O       24.11756744      50.09935284       9.77876306
O       25.52881378      49.63170082      17.83805583
O       25.31414417      47.24648265      16.40652519
O       26.34508065      49.57040671      15.38031842
O       23.68658433      49.44797148      16.05193900
O       15.27164438      48.84323481      19.92024648
O       22.08952341      47.43333810      17.42159710
O       16.93420980      46.76431325      19.55084147
O       17.36323142      50.63818860      20.02783564
O       18.91579525      49.34715274      17.75537594
O       18.75927327      47.18840707      16.14176716
O       15.23533149      47.43297564      16.76614341
O       17.47694599      49.56220269      15.55226496
O       25.45214850      44.29313364      17.64556190
O       19.82503715      49.82995211      21.18925248
O       19.33672894      47.26999880      19.06361931
O       26.85356265      44.48204997      15.45514119
O       23.36593131      47.05915710      13.45281760
O       17.33117646      44.52528027       4.14901945
O       25.45106877      47.24564999      10.62418040
O       15.26198674      42.48595602       5.55848477
O       18.65343234      42.23005168       4.96065675
O       18.65514154      44.56841986       6.41732247
O       20.72798026      42.46587327       7.85500329
O       22.04429464      44.77073954       7.04156569
O       22.04730608      42.47766741       5.55645535
O       23.36309142      42.46946057       7.85958585
O       25.43645918      42.23155406       4.97136030
O       15.26240726      44.77110747       7.05960135
O       25.43628284      44.57227289       6.42082485
O       16.58169239      47.57092925       7.85421770
O       15.26442846      49.88159039       7.05786652
O       15.26294986      47.59650027       5.55593163
O       18.65215722      47.33937972       4.95627058
O       18.65065150      49.67396642       6.41804258
O       20.72635245      47.57380114       7.86105881
O       26.78349846      50.07896348       9.80995722
O       22.04524419      49.88206053       7.06005960
O       13.94853460      47.56961084       7.85559247
O       22.04725182      47.59606080       5.56336193
O       16.57999675      42.46076315       7.85614893
O       26.75758916      49.63794011       4.14198194
O       16.57661905      41.82472758       2.33740152
O       13.94542819      41.82678185       2.33857989
O       15.26035893      44.73714564       1.52036334
O       19.97435884      44.52465684       4.14600805
O       20.72868564      41.82236671       2.33910361
O       22.04841842      44.73947585       1.52065793
O       24.11431182      44.52427869       4.15117980
O       23.36025632      41.82239737       2.33821983
O       13.94472281      42.45983311       7.85683631
O       26.75692447      44.52557666       4.15085247
O       17.33081020      49.63632532       4.14649904
O       16.57811121      46.93159255       2.33602675
O       13.94630992      46.93154145       2.33753245
O       19.97370772      49.63565078       4.14888852
O       22.04513567      49.84802716       1.52386573
O       20.73028632      46.93300294       2.34119850
O       24.11440678      49.63594717       4.14947770
O       23.36101597      46.93278831       2.34224594
O       15.25908382      49.85264670       1.51997055
O       23.36356620      47.57488448       7.86632876
O       22.04384699      46.88652133      32.69052862
O       23.36079948      41.90709118      13.49478893
O       17.31525106      50.07730780       9.82635625
O       15.28013682      47.00777414      11.21199225
O       15.27061413      49.84108762      12.72459797
O       25.45287292      42.12686824      10.68922006
O       25.43256600      44.91678662      12.06965157
O       24.11524781      44.96762205       9.79571855
O       25.43936211      47.33965567       4.95509221
O       26.78085327      44.96220533       9.81192118
O       15.26126779      46.88618406      32.68696077
O       18.64534755      47.24723413      10.62725726
O       19.97928296      50.08782442       9.80128309
O       18.66861166      50.02026870      12.08287554
O       22.05361384      44.72355274      12.68067083
O       22.04451168      41.90996430      11.18750827
O       16.60068956      47.04001799      13.51080852
O       22.04940867      49.83487372      12.65425563
O       18.64816909      42.13893833      10.63812448
O       25.44261773      49.67308748       6.41463839
O       16.60297030      41.94355537      13.47204262
O       13.96528672      41.92549999      13.52861983
O       20.73322196      41.91535584      13.50596083
O       15.25658784      41.90350511      11.20331811
O       17.32027014      44.96605835       9.80187227
O       22.04057780      46.99879056      11.15703423
O       19.98333892      44.97073922       9.79529302
O       20.73216162      47.02245503      13.46538509
O       18.66054044      44.90758842      12.06251587
O       15.27401897      44.73565349      12.72580907
O       13.95593311      47.05588349      13.50669792
Si      15.26037250      41.25281373       1.49794152
Si      18.65085497      50.72606756      10.54038497
Si      15.27351706      46.38031334      12.74004775
Si      25.44747402      50.71754389      10.52729193
Si      22.04421325      41.24731525       1.49941448
Si      22.04878468      46.36383833      12.67743030
Si      22.04558332      48.24120260       7.07956823
Si      18.60305424      43.72999445      16.19660674
Si      18.65139758      48.97899078       4.87332620
Si      18.81120992      48.81390336      16.12283891
Si      25.43845325      48.97910320       4.87002021
Si      15.26465906      48.24070181       7.07223613
Si      15.27742380      41.26160313      12.72381238
Si      25.43599797      43.87028617       4.87879254
Si      15.26171544      46.35780839       1.49862890
Si      22.04574610      43.13012690       7.06840641
Si      18.65194018      45.61402094      10.52310216
Si      25.49655240      43.76793465      16.02247260
Si      22.04137814      41.25869036      12.70364911
Si      15.26202744      43.13011668       7.07475654
Si      25.44524935      45.61252878      10.52385501
Si      22.04611236      46.35945385       1.50114931
Si      18.65354086      43.86946856       4.87440637
Si      25.20641050      48.86352644      16.30628266
Ca      13.59140681      48.53276532      11.49689671
Ca      16.95007040      45.98855237      17.23192942
Ca      15.33926093      48.62657203      14.71171697
Ca      25.44931887      48.54251542       8.31123012
Ca      23.72285083      46.05758914       5.82849591
Ca      22.01592743      48.63236413      14.56478634
Ca      22.04090337      51.10018930       9.02581530
Ca      20.36830224      46.05739495       5.82620462
Ca      18.64674476      48.54493761       8.32052618
Ca      27.12401600      46.00944293      17.22150241
Ca      15.26635470      51.09450685       9.03612606
Ca      13.58907362      46.05568817       5.83212922
Ca      25.44396067      43.43466931       8.31430699
Ca      23.72418021      40.94120914       5.83703911
Ca      22.04219205      45.96753869       9.01295139
Ca      20.36709495      40.94236402       5.83314393
Ca      13.58964335      43.44850750      11.50884411
Ca      16.94903467      43.43407654      11.49035020
Ca      17.19979713      50.93954551      17.49165963
Ca      13.65356274      51.08631176      16.93311578
Ca      20.35327214      48.52991388      11.44773236
Ca      18.67116049      45.98143395      14.00993573
Ca      23.72352908      48.52667406      11.41261029
Ca      25.44021582      46.08589850      13.95934166
Ca      15.31760596      43.54847023      14.65874790
Ca      16.95683459      48.54089040      11.51440865
Ca      20.44879147      40.92515057      17.17973366
Ca      25.44910704      40.98680947      13.88671585
Ca      23.73297038      43.43188941      11.47323105
Ca      22.04030899      43.58230332      14.68117655
Ca      20.30689840      45.91638843      17.33590033
Ca      20.35464221      43.42686105      11.46943407
Ca      18.64075110      40.93829884      14.01329254
Ca      23.89659352      41.15264424      17.51129988
Ca      23.73637997      45.83894284      17.33119135
Ca      18.64976977      43.43297275       8.31610728
Ca      15.27041066      45.98587378       9.03576600
Ca      16.93891513      46.05486034       5.83327486
Ca      13.58908719      40.94376419       5.83039440
Ca      22.04505428      43.50628246       3.35914932
Ca      25.43644562      40.97746029       2.69942396
Ca      25.43698822      46.08474429       2.70106059
Ca      18.65168244      40.97853342       2.70161705
Ca      22.04502715      48.61703112       3.36281537
Ca      15.26324829      48.61587623       3.35649798
Ca      18.65307965      46.08639997       2.70011135
Ca      15.26239369      43.50850025       3.36062228
Ca      16.93735514      40.94533811       5.83252201
H       38.79809193       2.65289955      18.38441646
H       38.82765771       6.33732925      19.84843599
H       36.29841065       6.79001153      20.34195408
H       27.26507172       7.76725443      20.19350335
H       39.34706346       8.31050193      18.70091104
H       32.68774971       7.62215881      18.41572424
H       39.55505607       8.45615782      20.86168147
H       31.78268085       9.40376541      20.38148876
H       33.53182715       6.51700575      19.79485712
H       35.57235380       6.90627367      18.90115617
H       34.06008312       8.31657663      20.84776277
H       35.73075765       8.78747650      19.39792509
H       28.83023964       7.43790923      17.22800585
H       33.37281664       8.81145390      22.15315001
H       36.13778018       7.34765736      17.09008806
H       30.20320340       9.12334398      20.27048253
H       32.81030954       2.19919013      18.60792328
H       28.12212204       3.92607761      18.89566163
H       40.03806289       1.23259289      19.34949816
H       39.11095274       4.82995987      19.69896797
H       35.60369863       0.15737207      19.67255658
H       35.52965189       2.37802670      19.80257367
H       35.53964213       1.96226818      21.38439224
H       37.97273955       1.79156754      19.96415633
H       33.63436259       1.39896855      19.75994277
H       27.99238257       4.43959749      20.39579661
H       28.79839385       3.73594690      17.75268296
H       30.89181967       2.58364189      18.93226241
H       30.33239358       5.22878723      20.27487585
H       28.77375387       8.39166841      18.99835158
H       31.53024315       6.10634337      19.52621041
H       29.41694252       7.14293878      19.77869186
H       28.08075273       1.52360955      19.28219490
H       29.88623472       3.14566806      20.71403286
H       29.91578236       3.72092300      22.20444970
H       30.69679951       1.29239601      19.88003260
C       35.64357749       3.01601647      17.34874855
O       35.70578801       9.69021530      18.94977690
O       30.83580949       3.53154393      15.50856032
O       35.60859843       0.89594624      32.69065955
O       28.82532741       0.89570096      32.68836827
O       35.55465024       7.24221530      19.89915900
O       32.21239784       1.19951643      16.23116850
O       38.98977526       9.09459431      12.05348167
O       38.40507021       5.49936087      19.52704453
O       39.80657344       7.76594166      20.22066106
O       35.65633447       1.71483661      17.07208947
O       35.62496596       3.38209596      18.59376536
O       32.15843653       3.42263792      17.78291411
O       33.47064569       3.53703382      15.46432798
O       37.77364337       3.61932802      15.34090473
O       33.69370130       8.68374508      15.48241686
O       39.02804464       1.25410952      16.07756871
O       33.06249956       1.27598322      18.96845471
O       35.35614812       1.63117756      20.48851246
O       27.38903075       0.85181554      19.11887562
O       38.46146261       1.53427460      19.16478091
O       30.23882726       2.08929587      19.50253930
O       27.44663225       4.35187712      19.58451224
O       29.64672329       3.93762954      21.29635712
O       37.68264444       9.21843284       9.77876306
O       39.09389078       8.75078082      17.83805583
O       38.87922117       6.36556265      16.40652519
O       39.91015765       8.68948671      15.38031842
O       37.25166133       8.56705148      16.05193900
O       28.83672138       7.96231481      19.92024648
O       35.65460041       6.55241810      17.42159710
O       30.49928680       5.88339325      19.55084147
O       30.92830842       9.75726860      20.02783564
O       32.48087225       8.46623274      17.75537594
O       32.32435027       6.30748707      16.14176716
O       28.80040849       6.55205564      16.76614341
O       31.04202299       8.68128269      15.55226496
O       39.01722550       3.41221364      17.64556190
O       33.39011415       8.94903211      21.18925248
O       32.90180594       6.38907880      19.06361931
O       40.41863965       3.60112997      15.45514119
O       36.93100831       6.17823710      13.45281760
O       30.89625346       3.64436027       4.14901945
O       39.01614577       6.36472999      10.62418040
O       28.82706374       1.60503602       5.55848477
O       32.21850934       1.34913168       4.96065675
O       32.22021854       3.68749986       6.41732247
O       34.29305726       1.58495327       7.85500329
O       35.60937164       3.88981954       7.04156569
O       35.61238308       1.59674741       5.55645535
O       36.92816842       1.58854057       7.85958585
O       39.00153618       1.35063406       4.97136030
O       28.82748426       3.89018747       7.05960135
O       39.00135984       3.69135289       6.42082485
O       30.14676939       6.69000925       7.85421770
O       28.82950546       9.00067039       7.05786652
O       28.82802686       6.71558027       5.55593163
O       32.21723422       6.45845972       4.95627058
O       32.21572850       8.79304642       6.41804258
O       34.29142945       6.69288114       7.86105881
O       40.34857546       9.19804348       9.80995722
O       35.61032119       9.00114053       7.06005960
O       27.51361160       6.68869084       7.85559247
O       35.61232882       6.71514080       5.56336193
O       30.14507375       1.57984315       7.85614893
O       40.32266616       8.75702011       4.14198194
O       30.14169605       0.94380758       2.33740152
O       27.51050519       0.94586185       2.33857989
O       28.82543593       3.85622564       1.52036334
O       33.53943584       3.64373684       4.14600805
O       34.29376264       0.94144671       2.33910361
O       35.61349542       3.85855585       1.52065793
O       37.67938882       3.64335869       4.15117980
O       36.92533332       0.94147737       2.33821983
O       27.50979981       1.57891311       7.85683631
O       40.32200147       3.64465666       4.15085247
O       30.89588720       8.75540532       4.14649904
O       30.14318821       6.05067255       2.33602675
O       27.51138692       6.05062145       2.33753245
O       33.53878472       8.75473078       4.14888852
O       35.61021267       8.96710716       1.52386573
O       34.29536332       6.05208294       2.34119850
O       37.67948378       8.75502717       4.14947770
O       36.92609297       6.05186831       2.34224594
O       28.82416082       8.97172670       1.51997055
O       36.92864320       6.69396448       7.86632876
O       35.60892399       6.00560133      32.69052862
O       36.92587648       1.02617118      13.49478893
O       30.88032806       9.19638780       9.82635625
O       28.84521382       6.12685414      11.21199225
O       28.83569113       8.96016762      12.72459797
O       39.01794992       1.24594824      10.68922006
O       38.99764300       4.03586662      12.06965157
O       37.68032481       4.08670205       9.79571855
O       39.00443911       6.45873567       4.95509221
O       40.34593027       4.08128533       9.81192118
O       28.82634479       6.00526406      32.68696077
O       32.21042455       6.36631413      10.62725726
O       33.54435996       9.20690442       9.80128309
O       32.23368866       9.13934870      12.08287554
O       35.61869084       3.84263274      12.68067083
O       35.60958868       1.02904430      11.18750827
O       30.16576656       6.15909799      13.51080852
O       35.61448567       8.95395372      12.65425563
O       32.21324609       1.25801833      10.63812448
O       39.00769473       8.79216748       6.41463839
O       30.16804730       1.06263537      13.47204262
O       27.53036372       1.04457999      13.52861983
O       34.29829896       1.03443584      13.50596083
O       28.82166484       1.02258511      11.20331811
O       30.88534714       4.08513835       9.80187227
O       35.60565480       6.11787056      11.15703423
O       33.54841592       4.08981922       9.79529302
O       34.29723862       6.14153503      13.46538509
O       32.22561744       4.02666842      12.06251587
O       28.83909597       3.85473349      12.72580907
O       27.52101011       6.17496349      13.50669792
Si      28.82544950       0.37189373       1.49794152
Si      32.21593197       9.84514756      10.54038497
Si      28.83859406       5.49939334      12.74004775
Si      39.01255102       9.83662389      10.52729193
Si      35.60929025       0.36639525       1.49941448
Si      35.61386168       5.48291833      12.67743030
Si      35.61066032       7.36028260       7.07956823
Si      32.16813124       2.84907445      16.19660674
Si      32.21647458       8.09807078       4.87332620
Si      32.37628692       7.93298336      16.12283891
Si      39.00353025       8.09818320       4.87002021
Si      28.82973606       7.35978181       7.07223613
Si      28.84250080       0.38068313      12.72381238
Si      39.00107497       2.98936617       4.87879254
Si      28.82679244       5.47688839       1.49862890
Si      35.61082310       2.24920690       7.06840641
Si      32.21701718       4.73310094      10.52310216
Si      39.06162940       2.88701465      16.02247260
Si      35.60645514       0.37777036      12.70364911
Si      28.82710444       2.24919668       7.07475654
Si      39.01032635       4.73160878      10.52385501
Si      35.61118936       5.47853385       1.50114931
Si      32.21861786       2.98854856       4.87440637
Si      38.77148750       7.98260644      16.30628266
Ca      27.15648381       7.65184532      11.49689671
Ca      30.51514740       5.10763237      17.23192942
Ca      28.90433793       7.74565203      14.71171697
Ca      39.01439587       7.66159542       8.31123012
Ca      37.28792783       5.17666914       5.82849591
Ca      35.58100443       7.75144413      14.56478634
Ca      35.60598037      10.21926930       9.02581530
Ca      33.93337924       5.17647495       5.82620462
Ca      32.21182176       7.66401761       8.32052618
Ca      40.68909300       5.12852293      17.22150241
Ca      28.83143170      10.21358685       9.03612606
Ca      27.15415062       5.17476817       5.83212922
Ca      39.00903767       2.55374931       8.31430699
Ca      37.28925721       0.06028914       5.83703911
Ca      35.60726905       5.08661869       9.01295139
Ca      33.93217195       0.06144402       5.83314393
Ca      27.15472035       2.56758750      11.50884411
Ca      30.51411167       2.55315654      11.49035020
Ca      30.76487413      10.05862551      17.49165963
Ca      27.21863974      10.20539176      16.93311578
Ca      33.91834914       7.64899388      11.44773236
Ca      32.23623749       5.10051395      14.00993573
Ca      37.28860608       7.64575406      11.41261029
Ca      39.00529282       5.20497850      13.95934166
Ca      28.88268296       2.66755023      14.65874790
Ca      30.52191159       7.65997040      11.51440865
Ca      34.01386847       0.04423057      17.17973366
Ca      39.01418404       0.10588947      13.88671585
Ca      37.29804738       2.55096941      11.47323105
Ca      35.60538599       2.70138332      14.68117655
Ca      33.87197540       5.03546843      17.33590033
Ca      33.91971921       2.54594105      11.46943407
Ca      32.20582810       0.05737884      14.01329254
Ca      37.46167052       0.27172424      17.51129988
Ca      37.30145697       4.95802284      17.33119135
Ca      32.21484677       2.55205275       8.31610728
Ca      28.83548766       5.10495378       9.03576600
Ca      30.50399213       5.17394034       5.83327486
Ca      27.15416419       0.06284419       5.83039440
Ca      35.61013128       2.62536246       3.35914932
Ca      39.00152262       0.09654029       2.69942396
Ca      39.00206522       5.20382429       2.70106059
Ca      32.21675944       0.09761342       2.70161705
Ca      35.61010415       7.73611112       3.36281537
Ca      28.82832529       7.73495623       3.35649798
Ca      32.21815665       5.20547997       2.70011135
Ca      28.82747069       2.62758025       3.36062228
Ca      30.50243214       0.06441811       5.83252201
H       38.79809193      12.87312955      18.38441646
H       38.82765771      16.55755925      19.84843599
H       36.29841065      17.01024153      20.34195408
H       27.26507172      17.98748443      20.19350335
H       39.34706346      18.53073193      18.70091104
H       32.68774971      17.84238881      18.41572424
H       39.55505607      18.67638782      20.86168147
H       31.78268085      19.62399541      20.38148876
H       33.53182715      16.73723575      19.79485712
H       35.57235380      17.12650367      18.90115617
H       34.06008312      18.53680663      20.84776277
H       35.73075765      19.00770650      19.39792509
H       28.83023964      17.65813923      17.22800585
H       33.37281664      19.03168390      22.15315001
H       36.13778018      17.56788736      17.09008806
H       30.20320340      19.34357398      20.27048253
H       32.81030954      12.41942013      18.60792328
H       28.12212204      14.14630761      18.89566163
H       40.03806289      11.45282289      19.34949816
H       39.11095274      15.05018987      19.69896797
H       35.60369863      10.37760207      19.67255658
H       35.52965189      12.59825670      19.80257367
H       35.53964213      12.18249818      21.38439224
H       37.97273955      12.01179754      19.96415633
H       33.63436259      11.61919855      19.75994277
H       27.99238257      14.65982749      20.39579661
H       28.79839385      13.95617690      17.75268296
H       30.89181967      12.80387189      18.93226241
H       30.33239358      15.44901723      20.27487585
H       28.77375387      18.61189841      18.99835158
H       31.53024315      16.32657337      19.52621041
H       29.41694252      17.36316878      19.77869186
H       28.08075273      11.74383955      19.28219490
H       29.88623472      13.36589806      20.71403286
H       29.91578236      13.94115300      22.20444970
H       30.69679951      11.51262601      19.88003260
C       35.64357749      13.23624647      17.34874855
O       35.70578801      19.91044530      18.94977690
O       30.83580949      13.75177393      15.50856032
O       35.60859843      11.11617624      32.69065955
O       28.82532741      11.11593096      32.68836827
O       35.55465024      17.46244530      19.89915900
O       32.21239784      11.41974643      16.23116850
O       38.98977526      19.31482431      12.05348167
O       38.40507021      15.71959087      19.52704453
O       39.80657344      17.98617166      20.22066106
O       35.65633447      11.93506661      17.07208947
O       35.62496596      13.60232596      18.59376536
O       32.15843653      13.64286792      17.78291411
O       33.47064569      13.75726382      15.46432798
O       37.77364337      13.83955802      15.34090473
O       33.69370130      18.90397508      15.48241686
O       39.02804464      11.47433952      16.07756871
O       33.06249956      11.49621322      18.96845471
O       35.35614812      11.85140756      20.48851246
O       27.38903075      11.07204554      19.11887562
O       38.46146261      11.75450460      19.16478091
O       30.23882726      12.30952587      19.50253930
O       27.44663225      14.57210712      19.58451224
O       29.64672329      14.15785954      21.29635712
O       37.68264444      19.43866284       9.77876306
O       39.09389078      18.97101082      17.83805583
O       38.87922117      16.58579265      16.40652519
O       39.91015765      18.90971671      15.38031842
O       37.25166133      18.78728148      16.05193900
O       28.83672138      18.18254481      19.92024648
O       35.65460041      16.77264810      17.42159710
O       30.49928680      16.10362325      19.55084147
O       30.92830842      19.97749860      20.02783564
O       32.48087225      18.68646274      17.75537594
O       32.32435027      16.52771707      16.14176716
O       28.80040849      16.77228564      16.76614341
O       31.04202299      18.90151269      15.55226496
O       39.01722550      13.63244364      17.64556190
O       33.39011415      19.16926211      21.18925248
O       32.90180594      16.60930880      19.06361931
O       40.41863965      13.82135997      15.45514119
O       36.93100831      16.39846710      13.45281760
O       30.89625346      13.86459027       4.14901945
O       39.01614577      16.58495999      10.62418040
O       28.82706374      11.82526602       5.55848477
O       32.21850934      11.56936168       4.96065675
O       32.22021854      13.90772986       6.41732247
O       34.29305726      11.80518327       7.85500329
O       35.60937164      14.11004954       7.04156569
O       35.61238308      11.81697741       5.55645535
O       36.92816842      11.80877057       7.85958585
O       39.00153618      11.57086406       4.97136030
O       28.82748426      14.11041747       7.05960135
O       39.00135984      13.91158289       6.42082485
O       30.14676939      16.91023925       7.85421770
O       28.82950546      19.22090039       7.05786652
O       28.82802686      16.93581027       5.55593163
O       32.21723422      16.67868972       4.95627058
O       32.21572850      19.01327642       6.41804258
O       34.29142945      16.91311114       7.86105881
O       40.34857546      19.41827348       9.80995722
O       35.61032119      19.22137053       7.06005960
O       27.51361160      16.90892084       7.85559247
O       35.61232882      16.93537080       5.56336193
O       30.14507375      11.80007315       7.85614893
O       40.32266616      18.97725011       4.14198194
O       30.14169605      11.16403758       2.33740152
O       27.51050519      11.16609185       2.33857989
O       28.82543593      14.07645564       1.52036334
O       33.53943584      13.86396684       4.14600805
O       34.29376264      11.16167671       2.33910361
O       35.61349542      14.07878585       1.52065793
O       37.67938882      13.86358869       4.15117980
O       36.92533332      11.16170737       2.33821983
O       27.50979981      11.79914311       7.85683631
O       40.32200147      13.86488666       4.15085247
O       30.89588720      18.97563532       4.14649904
O       30.14318821      16.27090255       2.33602675
O       27.51138692      16.27085145       2.33753245
O       33.53878472      18.97496078       4.14888852
O       35.61021267      19.18733716       1.52386573
O       34.29536332      16.27231294       2.34119850
O       37.67948378      18.97525717       4.14947770
O       36.92609297      16.27209831       2.34224594
O       28.82416082      19.19195670       1.51997055
O       36.92864320      16.91419448       7.86632876
O       35.60892399      16.22583133      32.69052862
O       36.92587648      11.24640118      13.49478893
O       30.88032806      19.41661780       9.82635625
O       28.84521382      16.34708414      11.21199225
O       28.83569113      19.18039762      12.72459797
O       39.01794992      11.46617824      10.68922006
O       38.99764300      14.25609662      12.06965157
O       37.68032481      14.30693205       9.79571855
O       39.00443911      16.67896567       4.95509221
O       40.34593027      14.30151533       9.81192118
O       28.82634479      16.22549406      32.68696077
O       32.21042455      16.58654413      10.62725726
O       33.54435996      19.42713442       9.80128309
O       32.23368866      19.35957870      12.08287554
O       35.61869084      14.06286274      12.68067083
O       35.60958868      11.24927430      11.18750827
O       30.16576656      16.37932799      13.51080852
O       35.61448567      19.17418372      12.65425563
O       32.21324609      11.47824833      10.63812448
O       39.00769473      19.01239748       6.41463839
O       30.16804730      11.28286537      13.47204262
O       27.53036372      11.26480999      13.52861983
O       34.29829896      11.25466584      13.50596083
O       28.82166484      11.24281511      11.20331811
O       30.88534714      14.30536835       9.80187227
O       35.60565480      16.33810056      11.15703423
O       33.54841592      14.31004922       9.79529302
O       34.29723862      16.36176503      13.46538509
O       32.22561744      14.24689842      12.06251587
O       28.83909597      14.07496349      12.72580907
O       27.52101011      16.39519349      13.50669792
Si      28.82544950      10.59212373       1.49794152
Si      32.21593197      20.06537756      10.54038497
Si      28.83859406      15.71962334      12.74004775
Si      39.01255102      20.05685389      10.52729193
Si      35.60929025      10.58662525       1.49941448
Si      35.61386168      15.70314833      12.67743030
Si      35.61066032      17.58051260       7.07956823
Si      32.16813124      13.06930445      16.19660674
Si      32.21647458      18.31830078       4.87332620
Si      32.37628692      18.15321336      16.12283891
Si      39.00353025      18.31841320       4.87002021
Si      28.82973606      17.58001181       7.07223613
Si      28.84250080      10.60091313      12.72381238
Si      39.00107497      13.20959617       4.87879254
Si      28.82679244      15.69711839       1.49862890
Si      35.61082310      12.46943690       7.06840641
Si      32.21701718      14.95333094      10.52310216
Si      39.06162940      13.10724465      16.02247260
Si      35.60645514      10.59800036      12.70364911
Si      28.82710444      12.46942668       7.07475654
Si      39.01032635      14.95183878      10.52385501
Si      35.61118936      15.69876385       1.50114931
Si      32.21861786      13.20877856       4.87440637
Si      38.77148750      18.20283644      16.30628266
Ca      27.15648381      17.87207532      11.49689671
Ca      30.51514740      15.32786237      17.23192942
Ca      28.90433793      17.96588203      14.71171697
Ca      39.01439587      17.88182542       8.31123012
Ca      37.28792783      15.39689914       5.82849591
Ca      35.58100443      17.97167413      14.56478634
Ca      35.60598037      20.43949930       9.02581530
Ca      33.93337924      15.39670495       5.82620462
Ca      32.21182176      17.88424761       8.32052618
Ca      40.68909300      15.34875293      17.22150241
Ca      28.83143170      20.43381685       9.03612606
Ca      27.15415062      15.39499817       5.83212922
Ca      39.00903767      12.77397931       8.31430699
Ca      37.28925721      10.28051914       5.83703911
Ca      35.60726905      15.30684869       9.01295139
Ca      33.93217195      10.28167402       5.83314393
Ca      27.15472035      12.78781750      11.50884411
Ca      30.51411167      12.77338654      11.49035020
Ca      30.76487413      20.27885551      17.49165963
Ca      27.21863974      20.42562176      16.93311578
Ca      33.91834914      17.86922388      11.44773236
Ca      32.23623749      15.32074395      14.00993573
Ca      37.28860608      17.86598406      11.41261029
Ca      39.00529282      15.42520850      13.95934166
Ca      28.88268296      12.88778023      14.65874790
Ca      30.52191159      17.88020040      11.51440865
Ca      34.01386847      10.26446057      17.17973366
Ca      39.01418404      10.32611947      13.88671585
Ca      37.29804738      12.77119941      11.47323105
Ca      35.60538599      12.92161332      14.68117655
Ca      33.87197540      15.25569843      17.33590033
Ca      33.91971921      12.76617105      11.46943407
Ca      32.20582810      10.27760884      14.01329254
Ca      37.46167052      10.49195424      17.51129988
Ca      37.30145697      15.17825284      17.33119135
Ca      32.21484677      12.77228275       8.31610728
Ca      28.83548766      15.32518378       9.03576600
Ca      30.50399213      15.39417034       5.83327486
Ca      27.15416419      10.28307419       5.83039440
Ca      35.61013128      12.84559246       3.35914932
Ca      39.00152262      10.31677029       2.69942396
Ca      39.00206522      15.42405429       2.70106059
Ca      32.21675944      10.31784342       2.70161705
Ca      35.61010415      17.95634112       3.36281537
Ca      28.82832529      17.95518623       3.35649798
Ca      32.21815665      15.42570997       2.70011135
Ca      28.82747069      12.84781025       3.36062228
Ca      30.50243214      10.28464811       5.83252201
H       38.79809193      23.09335955      18.38441646
H       38.82765771      26.77778925      19.84843599
H       36.29841065      27.23047153      20.34195408
H       27.26507172      28.20771443      20.19350335
H       39.34706346      28.75096193      18.70091104
H       32.68774971      28.06261881      18.41572424
H       39.55505607      28.89661782      20.86168147
H       31.78268085      29.84422541      20.38148876
H       33.53182715      26.95746575      19.79485712
H       35.57235380      27.34673367      18.90115617
H       34.06008312      28.75703663      20.84776277
H       35.73075765      29.22793650      19.39792509
H       28.83023964      27.87836923      17.22800585
H       33.37281664      29.25191390      22.15315001
H       36.13778018      27.78811736      17.09008806
H       30.20320340      29.56380398      20.27048253
H       32.81030954      22.63965013      18.60792328
H       28.12212204      24.36653761      18.89566163
H       40.03806289      21.67305289      19.34949816
H       39.11095274      25.27041987      19.69896797
H       35.60369863      20.59783207      19.67255658
H       35.52965189      22.81848670      19.80257367
H       35.53964213      22.40272818      21.38439224
H       37.97273955      22.23202754      19.96415633
H       33.63436259      21.83942855      19.75994277
H       27.99238257      24.88005749      20.39579661
H       28.79839385      24.17640690      17.75268296
H       30.89181967      23.02410189      18.93226241
H       30.33239358      25.66924723      20.27487585
H       28.77375387      28.83212841      18.99835158
H       31.53024315      26.54680337      19.52621041
H       29.41694252      27.58339878      19.77869186
H       28.08075273      21.96406955      19.28219490
H       29.88623472      23.58612806      20.71403286
H       29.91578236      24.16138300      22.20444970
H       30.69679951      21.73285601      19.88003260
C       35.64357749      23.45647647      17.34874855
O       35.70578801      30.13067530      18.94977690
O       30.83580949      23.97200393      15.50856032
O       35.60859843      21.33640624      32.69065955
O       28.82532741      21.33616096      32.68836827
O       35.55465024      27.68267530      19.89915900
O       32.21239784      21.63997643      16.23116850
O       38.98977526      29.53505431      12.05348167
O       38.40507021      25.93982087      19.52704453
O       39.80657344      28.20640166      20.22066106
O       35.65633447      22.15529661      17.07208947
O       35.62496596      23.82255596      18.59376536
O       32.15843653      23.86309792      17.78291411
O       33.47064569      23.97749382      15.46432798
O       37.77364337      24.05978802      15.34090473
O       33.69370130      29.12420508      15.48241686
O       39.02804464      21.69456952      16.07756871
O       33.06249956      21.71644322      18.96845471
O       35.35614812      22.07163756      20.48851246
O       27.38903075      21.29227554      19.11887562
O       38.46146261      21.97473460      19.16478091
O       30.23882726      22.52975587      19.50253930
O       27.44663225      24.79233712      19.58451224
O       29.64672329      24.37808954      21.29635712
O       37.68264444      29.65889284       9.77876306
O       39.09389078      29.19124082      17.83805583
O       38.87922117      26.80602265      16.40652519
O       39.91015765      29.12994671      15.38031842
O       37.25166133      29.00751148      16.05193900
O       28.83672138      28.40277481      19.92024648
O       35.65460041      26.99287810      17.42159710
O       30.49928680      26.32385325      19.55084147
O       30.92830842      30.19772860      20.02783564
O       32.48087225      28.90669274      17.75537594
O       32.32435027      26.74794707      16.14176716
O       28.80040849      26.99251564      16.76614341
O       31.04202299      29.12174269      15.55226496
O       39.01722550      23.85267364      17.64556190
O       33.39011415      29.38949211      21.18925248
O       32.90180594      26.82953880      19.06361931
O       40.41863965      24.04158997      15.45514119
O       36.93100831      26.61869710      13.45281760
O       30.89625346      24.08482027       4.14901945
O       39.01614577      26.80518999      10.62418040
O       28.82706374      22.04549602       5.55848477
O       32.21850934      21.78959168       4.96065675
O       32.22021854      24.12795986       6.41732247
O       34.29305726      22.02541327       7.85500329
O       35.60937164      24.33027954       7.04156569
O       35.61238308      22.03720741       5.55645535
O       36.92816842      22.02900057       7.85958585
O       39.00153618      21.79109406       4.97136030
O       28.82748426      24.33064747       7.05960135
O       39.00135984      24.13181289       6.42082485
O       30.14676939      27.13046925       7.85421770
O       28.82950546      29.44113039       7.05786652
O       28.82802686      27.15604027       5.55593163
O       32.21723422      26.89891972       4.95627058
O       32.21572850      29.23350642       6.41804258
O       34.29142945      27.13334114       7.86105881
O       40.34857546      29.63850348       9.80995722
O       35.61032119      29.44160053       7.06005960
O       27.51361160      27.12915084       7.85559247
O       35.61232882      27.15560080       5.56336193
O       30.14507375      22.02030315       7.85614893
O       40.32266616      29.19748011       4.14198194
O       30.14169605      21.38426758       2.33740152
O       27.51050519      21.38632185       2.33857989
O       28.82543593      24.29668564       1.52036334
O       33.53943584      24.08419684       4.14600805
O       34.29376264      21.38190671       2.33910361
O       35.61349542      24.29901585       1.52065793
O       37.67938882      24.08381869       4.15117980
O       36.92533332      21.38193737       2.33821983
O       27.50979981      22.01937311       7.85683631
O       40.32200147      24.08511666       4.15085247
O       30.89588720      29.19586532       4.14649904
O       30.14318821      26.49113255       2.33602675
O       27.51138692      26.49108145       2.33753245
O       33.53878472      29.19519078       4.14888852
O       35.61021267      29.40756716       1.52386573
O       34.29536332      26.49254294       2.34119850
O       37.67948378      29.19548717       4.14947770
O       36.92609297      26.49232831       2.34224594
O       28.82416082      29.41218670       1.51997055
O       36.92864320      27.13442448       7.86632876
O       35.60892399      26.44606133      32.69052862
O       36.92587648      21.46663118      13.49478893
O       30.88032806      29.63684780       9.82635625
O       28.84521382      26.56731414      11.21199225
O       28.83569113      29.40062762      12.72459797
O       39.01794992      21.68640824      10.68922006
O       38.99764300      24.47632662      12.06965157
O       37.68032481      24.52716205       9.79571855
O       39.00443911      26.89919567       4.95509221
O       40.34593027      24.52174533       9.81192118
O       28.82634479      26.44572406      32.68696077
O       32.21042455      26.80677413      10.62725726
O       33.54435996      29.64736442       9.80128309
O       32.23368866      29.57980870      12.08287554
O       35.61869084      24.28309274      12.68067083
O       35.60958868      21.46950430      11.18750827
O       30.16576656      26.59955799      13.51080852
O       35.61448567      29.39441372      12.65425563
O       32.21324609      21.69847833      10.63812448
O       39.00769473      29.23262748       6.41463839
O       30.16804730      21.50309537      13.47204262
O       27.53036372      21.48503999      13.52861983
O       34.29829896      21.47489584      13.50596083
O       28.82166484      21.46304511      11.20331811
O       30.88534714      24.52559835       9.80187227
O       35.60565480      26.55833056      11.15703423
O       33.54841592      24.53027922       9.79529302
O       34.29723862      26.58199503      13.46538509
O       32.22561744      24.46712842      12.06251587
O       28.83909597      24.29519349      12.72580907
O       27.52101011      26.61542349      13.50669792
Si      28.82544950      20.81235373       1.49794152
Si      32.21593197      30.28560756      10.54038497
Si      28.83859406      25.93985334      12.74004775
Si      39.01255102      30.27708389      10.52729193
Si      35.60929025      20.80685525       1.49941448
Si      35.61386168      25.92337833      12.67743030
Si      35.61066032      27.80074260       7.07956823
Si      32.16813124      23.28953445      16.19660674
Si      32.21647458      28.53853078       4.87332620
Si      32.37628692      28.37344336      16.12283891
Si      39.00353025      28.53864320       4.87002021
Si      28.82973606      27.80024181       7.07223613
Si      28.84250080      20.82114313      12.72381238
Si      39.00107497      23.42982617       4.87879254
Si      28.82679244      25.91734839       1.49862890
Si      35.61082310      22.68966690       7.06840641
Si      32.21701718      25.17356094      10.52310216
Si      39.06162940      23.32747465      16.02247260
Si      35.60645514      20.81823036      12.70364911
Si      28.82710444      22.68965668       7.07475654
Si      39.01032635      25.17206878      10.52385501
Si      35.61118936      25.91899385       1.50114931
Si      32.21861786      23.42900856       4.87440637
Si      38.77148750      28.42306644      16.30628266
Ca      27.15648381      28.09230532      11.49689671
Ca      30.51514740      25.54809237      17.23192942
Ca      28.90433793      28.18611203      14.71171697
Ca      39.01439587      28.10205542       8.31123012
Ca      37.28792783      25.61712914       5.82849591
Ca      35.58100443      28.19190413      14.56478634
Ca      35.60598037      30.65972930       9.02581530
Ca      33.93337924      25.61693495       5.82620462
Ca      32.21182176      28.10447761       8.32052618
Ca      40.68909300      25.56898293      17.22150241
Ca      28.83143170      30.65404685       9.03612606
Ca      27.15415062      25.61522817       5.83212922
Ca      39.00903767      22.99420931       8.31430699
Ca      37.28925721      20.50074914       5.83703911
Ca      35.60726905      25.52707869       9.01295139
Ca      33.93217195      20.50190402       5.83314393
Ca      27.15472035      23.00804750      11.50884411
Ca      30.51411167      22.99361654      11.49035020
Ca      30.76487413      30.49908551      17.49165963
Ca      27.21863974      30.64585176      16.93311578
Ca      33.91834914      28.08945388      11.44773236
Ca      32.23623749      25.54097395      14.00993573
Ca      37.28860608      28.08621406      11.41261029
Ca      39.00529282      25.64543850      13.95934166
Ca      28.88268296      23.10801023      14.65874790
Ca      30.52191159      28.10043040      11.51440865
Ca      34.01386847      20.48469057      17.17973366
Ca      39.01418404      20.54634947      13.88671585
Ca      37.29804738      22.99142941      11.47323105
Ca      35.60538599      23.14184332      14.68117655
Ca      33.87197540      25.47592843      17.33590033
Ca      33.91971921      22.98640105      11.46943407
Ca      32.20582810      20.49783884      14.01329254
Ca      37.46167052      20.71218424      17.51129988
Ca      37.30145697      25.39848284      17.33119135
Ca      32.21484677      22.99251275       8.31610728
Ca      28.83548766      25.54541378       9.03576600
Ca      30.50399213      25.61440034       5.83327486
Ca      27.15416419      20.50330419       5.83039440
Ca      35.61013128      23.06582246       3.35914932
Ca      39.00152262      20.53700029       2.69942396
Ca      39.00206522      25.64428429       2.70106059
Ca      32.21675944      20.53807342       2.70161705
Ca      35.61010415      28.17657112       3.36281537
Ca      28.82832529      28.17541623       3.35649798
Ca      32.21815665      25.64593997       2.70011135
Ca      28.82747069      23.06804025       3.36062228
Ca      30.50243214      20.50487811       5.83252201
H       38.79809193      33.31358955      18.38441646
H       38.82765771      36.99801925      19.84843599
H       36.29841065      37.45070153      20.34195408
H       27.26507172      38.42794443      20.19350335
H       39.34706346      38.97119193      18.70091104
H       32.68774971      38.28284881      18.41572424
H       39.55505607      39.11684782      20.86168147
H       31.78268085      40.06445541      20.38148876
H       33.53182715      37.17769575      19.79485712
H       35.57235380      37.56696367      18.90115617
H       34.06008312      38.97726663      20.84776277
H       35.73075765      39.44816650      19.39792509
H       28.83023964      38.09859923      17.22800585
H       33.37281664      39.47214390      22.15315001
H       36.13778018      38.00834736      17.09008806
H       30.20320340      39.78403398      20.27048253
H       32.81030954      32.85988013      18.60792328
H       28.12212204      34.58676761      18.89566163
H       40.03806289      31.89328289      19.34949816
H       39.11095274      35.49064987      19.69896797
H       35.60369863      30.81806207      19.67255658
H       35.52965189      33.03871670      19.80257367
H       35.53964213      32.62295818      21.38439224
H       37.97273955      32.45225754      19.96415633
H       33.63436259      32.05965855      19.75994277
H       27.99238257      35.10028749      20.39579661
H       28.79839385      34.39663690      17.75268296
H       30.89181967      33.24433189      18.93226241
H       30.33239358      35.88947723      20.27487585
H       28.77375387      39.05235841      18.99835158
H       31.53024315      36.76703337      19.52621041
H       29.41694252      37.80362878      19.77869186
H       28.08075273      32.18429955      19.28219490
H       29.88623472      33.80635806      20.71403286
H       29.91578236      34.38161300      22.20444970
H       30.69679951      31.95308601      19.88003260
C       35.64357749      33.67670647      17.34874855
O       35.70578801      40.35090530      18.94977690
O       30.83580949      34.19223393      15.50856032
O       35.60859843      31.55663624      32.69065955
O       28.82532741      31.55639096      32.68836827
O       35.55465024      37.90290530      19.89915900
O       32.21239784      31.86020643      16.23116850
O       38.98977526      39.75528431      12.05348167
O       38.40507021      36.16005087      19.52704453
O       39.80657344      38.42663166      20.22066106
O       35.65633447      32.37552661      17.07208947
O       35.62496596      34.04278596      18.59376536
O       32.15843653      34.08332792      17.78291411
O       33.47064569      34.19772382      15.46432798
O       37.77364337      34.28001802      15.34090473
O       33.69370130      39.34443508      15.48241686
O       39.02804464      31.91479952      16.07756871
O       33.06249956      31.93667322      18.96845471
O       35.35614812      32.29186756      20.48851246
O       27.38903075      31.51250554      19.11887562
O       38.46146261      32.19496460      19.16478091
O       30.23882726      32.74998587      19.50253930
O       27.44663225      35.01256712      19.58451224
O       29.64672329      34.59831954      21.29635712
O       37.68264444      39.87912284       9.77876306
O       39.09389078      39.41147082      17.83805583
O       38.87922117      37.02625265      16.40652519
O       39.91015765      39.35017671      15.38031842
O       37.25166133      39.22774148      16.05193900
O       28.83672138      38.62300481      19.92024648
O       35.65460041      37.21310810      17.42159710
O       30.49928680      36.54408325      19.55084147
O       30.92830842      40.41795860      20.02783564
O       32.48087225      39.12692274      17.75537594
O       32.32435027      36.96817707      16.14176716
O       28.80040849      37.21274564      16.76614341
O       31.04202299      39.34197269      15.55226496
O       39.01722550      34.07290364      17.64556190
O       33.39011415      39.60972211      21.18925248
O       32.90180594      37.04976880      19.06361931
O       40.41863965      34.26181997      15.45514119
O       36.93100831      36.83892710      13.45281760
O       30.89625346      34.30505027       4.14901945
O       39.01614577      37.02541999      10.62418040
O       28.82706374      32.26572602       5.55848477
O       32.21850934      32.00982168       4.96065675
O       32.22021854      34.34818986       6.41732247
O       34.29305726      32.24564327       7.85500329
O       35.60937164      34.55050954       7.04156569
O       35.61238308      32.25743741       5.55645535
O       36.92816842      32.24923057       7.85958585
O       39.00153618      32.01132406       4.97136030
O       28.82748426      34.55087747       7.05960135
O       39.00135984      34.35204289       6.42082485
O       30.14676939      37.35069925       7.85421770
O       28.82950546      39.66136039       7.05786652
O       28.82802686      37.37627027       5.55593163
O       32.21723422      37.11914972       4.95627058
O       32.21572850      39.45373642       6.41804258
O       34.29142945      37.35357114       7.86105881
O       40.34857546      39.85873348       9.80995722
O       35.61032119      39.66183053       7.06005960
O       27.51361160      37.34938084       7.85559247
O       35.61232882      37.37583080       5.56336193
O       30.14507375      32.24053315       7.85614893
O       40.32266616      39.41771011       4.14198194
O       30.14169605      31.60449758       2.33740152
O       27.51050519      31.60655185       2.33857989
O       28.82543593      34.51691564       1.52036334
O       33.53943584      34.30442684       4.14600805
O       34.29376264      31.60213671       2.33910361
O       35.61349542      34.51924585       1.52065793
O       37.67938882      34.30404869       4.15117980
O       36.92533332      31.60216737       2.33821983
O       27.50979981      32.23960311       7.85683631
O       40.32200147      34.30534666       4.15085247
O       30.89588720      39.41609532       4.14649904
O       30.14318821      36.71136255       2.33602675
O       27.51138692      36.71131145       2.33753245
O       33.53878472      39.41542078       4.14888852
O       35.61021267      39.62779716       1.52386573
O       34.29536332      36.71277294       2.34119850
O       37.67948378      39.41571717       4.14947770
O       36.92609297      36.71255831       2.34224594
O       28.82416082      39.63241670       1.51997055
O       36.92864320      37.35465448       7.86632876
O       35.60892399      36.66629133      32.69052862
O       36.92587648      31.68686118      13.49478893
O       30.88032806      39.85707780       9.82635625
O       28.84521382      36.78754414      11.21199225
O       28.83569113      39.62085762      12.72459797
O       39.01794992      31.90663824      10.68922006
O       38.99764300      34.69655662      12.06965157
O       37.68032481      34.74739205       9.79571855
O       39.00443911      37.11942567       4.95509221
O       40.34593027      34.74197533       9.81192118
O       28.82634479      36.66595406      32.68696077
O       32.21042455      37.02700413      10.62725726
O       33.54435996      39.86759442       9.80128309
O       32.23368866      39.80003870      12.08287554
O       35.61869084      34.50332274      12.68067083
O       35.60958868      31.68973430      11.18750827
O       30.16576656      36.81978799      13.51080852
O       35.61448567      39.61464372      12.65425563
O       32.21324609      31.91870833      10.63812448
O       39.00769473      39.45285748       6.41463839
O       30.16804730      31.72332537      13.47204262
O       27.53036372      31.70526999      13.52861983
O       34.29829896      31.69512584      13.50596083
O       28.82166484      31.68327511      11.20331811
O       30.88534714      34.74582835       9.80187227
O       35.60565480      36.77856056      11.15703423
O       33.54841592      34.75050922       9.79529302
O       34.29723862      36.80222503      13.46538509
O       32.22561744      34.68735842      12.06251587
O       28.83909597      34.51542349      12.72580907
O       27.52101011      36.83565349      13.50669792
Si      28.82544950      31.03258373       1.49794152
Si      32.21593197      40.50583756      10.54038497
Si      28.83859406      36.16008334      12.74004775
Si      39.01255102      40.49731389      10.52729193
Si      35.60929025      31.02708525       1.49941448
Si      35.61386168      36.14360833      12.67743030
Si      35.61066032      38.02097260       7.07956823
Si      32.16813124      33.50976445      16.19660674
Si      32.21647458      38.75876078       4.87332620
Si      32.37628692      38.59367336      16.12283891
Si      39.00353025      38.75887320       4.87002021
Si      28.82973606      38.02047181       7.07223613
Si      28.84250080      31.04137313      12.72381238
Si      39.00107497      33.65005617       4.87879254
Si      28.82679244      36.13757839       1.49862890
Si      35.61082310      32.90989690       7.06840641
Si      32.21701718      35.39379094      10.52310216
Si      39.06162940      33.54770465      16.02247260
Si      35.60645514      31.03846036      12.70364911
Si      28.82710444      32.90988668       7.07475654
Si      39.01032635      35.39229878      10.52385501
Si      35.61118936      36.13922385       1.50114931
Si      32.21861786      33.64923856       4.87440637
Si      38.77148750      38.64329644      16.30628266
Ca      27.15648381      38.31253532      11.49689671
Ca      30.51514740      35.76832237      17.23192942
Ca      28.90433793      38.40634203      14.71171697
Ca      39.01439587      38.32228542       8.31123012
Ca      37.28792783      35.83735914       5.82849591
Ca      35.58100443      38.41213413      14.56478634
Ca      35.60598037      40.87995930       9.02581530
Ca      33.93337924      35.83716495       5.82620462
Ca      32.21182176      38.32470761       8.32052618
Ca      40.68909300      35.78921293      17.22150241
Ca      28.83143170      40.87427685       9.03612606
Ca      27.15415062      35.83545817       5.83212922
Ca      39.00903767      33.21443931       8.31430699
Ca      37.28925721      30.72097914       5.83703911
Ca      35.60726905      35.74730869       9.01295139
Ca      33.93217195      30.72213402       5.83314393
Ca      27.15472035      33.22827750      11.50884411
Ca      30.51411167      33.21384654      11.49035020
Ca      30.76487413      40.71931551      17.49165963
Ca      27.21863974      40.86608176      16.93311578
Ca      33.91834914      38.30968388      11.44773236
Ca      32.23623749      35.76120395      14.00993573
Ca      37.28860608      38.30644406      11.41261029
Ca      39.00529282      35.86566850      13.95934166
Ca      28.88268296      33.32824023      14.65874790
Ca      30.52191159      38.32066040      11.51440865
Ca      34.01386847      30.70492057      17.17973366
Ca      39.01418404      30.76657947      13.88671585
Ca      37.29804738      33.21165941      11.47323105
Ca      35.60538599      33.36207332      14.68117655
Ca      33.87197540      35.69615843      17.33590033
Ca      33.91971921      33.20663105      11.46943407
Ca      32.20582810      30.71806884      14.01329254
Ca      37.46167052      30.93241424      17.51129988
Ca      37.30145697      35.61871284      17.33119135
Ca      32.21484677      33.21274275       8.31610728
Ca      28.83548766      35.76564378       9.03576600
Ca      30.50399213      35.83463034       5.83327486
Ca      27.15416419      30.72353419       5.83039440
Ca      35.61013128      33.28605246       3.35914932
Ca      39.00152262      30.75723029       2.69942396
Ca      39.00206522      35.86451429       2.70106059
Ca      32.21675944      30.75830342       2.70161705
Ca      35.61010415      38.39680112       3.36281537
Ca      28.82832529      38.39564623       3.35649798
Ca      32.21815665      35.86616997       2.70011135
Ca      28.82747069      33.28827025       3.36062228
Ca      30.50243214      30.72510811       5.83252201
H       38.79809193      43.53381955      18.38441646
H       38.82765771      47.21824925      19.84843599
H       36.29841065      47.67093153      20.34195408
H       27.26507172      48.64817443      20.19350335
H       39.34706346      49.19142193      18.70091104
H       32.68774971      48.50307881      18.41572424
H       39.55505607      49.33707782      20.86168147
H       31.78268085      50.28468541      20.38148876
H       33.53182715      47.39792575      19.79485712
H       35.57235380      47.78719367      18.90115617
H       34.06008312      49.19749663      20.84776277
H       35.73075765      49.66839650      19.39792509
H       28.83023964      48.31882923      17.22800585
H       33.37281664      49.69237390      22.15315001
H       36.13778018      48.22857736      17.09008806
H       30.20320340      50.00426398      20.27048253
H       32.81030954      43.08011013      18.60792328
H       28.12212204      44.80699761      18.89566163
H       40.03806289      42.11351289      19.34949816
H       39.11095274      45.71087987      19.69896797
H       35.60369863      41.03829207      19.67255658
H       35.52965189      43.25894670      19.80257367
H       35.53964213      42.84318818      21.38439224
H       37.97273955      42.67248754      19.96415633
H       33.63436259      42.27988855      19.75994277
H       27.99238257      45.32051749      20.39579661
H       28.79839385      44.61686690      17.75268296
H       30.89181967      43.46456189      18.93226241
H       30.33239358      46.10970723      20.27487585
H       28.77375387      49.27258841      18.99835158
H       31.53024315      46.98726337      19.52621041
H       29.41694252      48.02385878      19.77869186
H       28.08075273      42.40452955      19.28219490
H       29.88623472      44.02658806      20.71403286
H       29.91578236      44.60184300      22.20444970
H       30.69679951      42.17331601      19.88003260
C       35.64357749      43.89693647      17.34874855
O       35.70578801      50.57113530      18.94977690
O       30.83580949      44.41246393      15.50856032
O       35.60859843      41.77686624      32.69065955
O       28.82532741      41.77662096      32.68836827
O       35.55465024      48.12313530      19.89915900
O       32.21239784      42.08043643      16.23116850
O       38.98977526      49.97551431      12.05348167
O       38.40507021      46.38028087      19.52704453
O       39.80657344      48.64686166      20.22066106
O       35.65633447      42.59575661      17.07208947
O       35.62496596      44.26301596      18.59376536
O       32.15843653      44.30355792      17.78291411
O       33.47064569      44.41795382      15.46432798
O       37.77364337      44.50024802      15.34090473
O       33.69370130      49.56466508      15.48241686
O       39.02804464      42.13502952      16.07756871
O       33.06249956      42.15690322      18.96845471
O       35.35614812      42.51209756      20.48851246
O       27.38903075      41.73273554      19.11887562
O       38.46146261      42.41519460      19.16478091
O       30.23882726      42.97021587      19.50253930
O       27.44663225      45.23279712      19.58451224
O       29.64672329      44.81854954      21.29635712
O       37.68264444      50.09935284       9.77876306
O       39.09389078      49.63170082      17.83805583
O       38.87922117      47.24648265      16.40652519
O       39.91015765      49.57040671      15.38031842
O       37.25166133      49.44797148      16.05193900
O       28.83672138      48.84323481      19.92024648
O       35.65460041      47.43333810      17.42159710
O       30.49928680      46.76431325      19.55084147
O       30.92830842      50.63818860      20.02783564
O       32.48087225      49.34715274      17.75537594
O       32.32435027      47.18840707      16.14176716
O       28.80040849      47.43297564      16.76614341
O       31.04202299      49.56220269      15.55226496
O       39.01722550      44.29313364      17.64556190
O       33.39011415      49.82995211      21.18925248
O       32.90180594      47.26999880      19.06361931
O       40.41863965      44.48204997      15.45514119
O       36.93100831      47.05915710      13.45281760
O       30.89625346      44.52528027       4.14901945
O       39.01614577      47.24564999      10.62418040
O       28.82706374      42.48595602       5.55848477
O       32.21850934      42.23005168       4.96065675
O       32.22021854      44.56841986       6.41732247
O       34.29305726      42.46587327       7.85500329
O       35.60937164      44.77073954       7.04156569
O       35.61238308      42.47766741       5.55645535
O       36.92816842      42.46946057       7.85958585
O       39.00153618      42.23155406       4.97136030
O       28.82748426      44.77110747       7.05960135
O       39.00135984      44.57227289       6.42082485
O       30.14676939      47.57092925       7.85421770
O       28.82950546      49.88159039       7.05786652
O       28.82802686      47.59650027       5.55593163
O       32.21723422      47.33937972       4.95627058
O       32.21572850      49.67396642       6.41804258
O       34.29142945      47.57380114       7.86105881
O       40.34857546      50.07896348       9.80995722
O       35.61032119      49.88206053       7.06005960
O       27.51361160      47.56961084       7.85559247
O       35.61232882      47.59606080       5.56336193
O       30.14507375      42.46076315       7.85614893
O       40.32266616      49.63794011       4.14198194
O       30.14169605      41.82472758       2.33740152
O       27.51050519      41.82678185       2.33857989
O       28.82543593      44.73714564       1.52036334
O       33.53943584      44.52465684       4.14600805
O       34.29376264      41.82236671       2.33910361
O       35.61349542      44.73947585       1.52065793
O       37.67938882      44.52427869       4.15117980
O       36.92533332      41.82239737       2.33821983
O       27.50979981      42.45983311       7.85683631
O       40.32200147      44.52557666       4.15085247
O       30.89588720      49.63632532       4.14649904
O       30.14318821      46.93159255       2.33602675
O       27.51138692      46.93154145       2.33753245
O       33.53878472      49.63565078       4.14888852
O       35.61021267      49.84802716       1.52386573
O       34.29536332      46.93300294       2.34119850
O       37.67948378      49.63594717       4.14947770
O       36.92609297      46.93278831       2.34224594
O       28.82416082      49.85264670       1.51997055
O       36.92864320      47.57488448       7.86632876
O       35.60892399      46.88652133      32.69052862
O       36.92587648      41.90709118      13.49478893
O       30.88032806      50.07730780       9.82635625
O       28.84521382      47.00777414      11.21199225
O       28.83569113      49.84108762      12.72459797
O       39.01794992      42.12686824      10.68922006
O       38.99764300      44.91678662      12.06965157
O       37.68032481      44.96762205       9.79571855
O       39.00443911      47.33965567       4.95509221
O       40.34593027      44.96220533       9.81192118
O       28.82634479      46.88618406      32.68696077
O       32.21042455      47.24723413      10.62725726
O       33.54435996      50.08782442       9.80128309
O       32.23368866      50.02026870      12.08287554
O       35.61869084      44.72355274      12.68067083
O       35.60958868      41.90996430      11.18750827
O       30.16576656      47.04001799      13.51080852
O       35.61448567      49.83487372      12.65425563
O       32.21324609      42.13893833      10.63812448
O       39.00769473      49.67308748       6.41463839
O       30.16804730      41.94355537      13.47204262
O       27.53036372      41.92549999      13.52861983
O       34.29829896      41.91535584      13.50596083
O       28.82166484      41.90350511      11.20331811
O       30.88534714      44.96605835       9.80187227
O       35.60565480      46.99879056      11.15703423
O       33.54841592      44.97073922       9.79529302
O       34.29723862      47.02245503      13.46538509
O       32.22561744      44.90758842      12.06251587
O       28.83909597      44.73565349      12.72580907
O       27.52101011      47.05588349      13.50669792
Si      28.82544950      41.25281373       1.49794152
Si      32.21593197      50.72606756      10.54038497
Si      28.83859406      46.38031334      12.74004775
Si      39.01255102      50.71754389      10.52729193
Si      35.60929025      41.24731525       1.49941448
Si      35.61386168      46.36383833      12.67743030
Si      35.61066032      48.24120260       7.07956823
Si      32.16813124      43.72999445      16.19660674
Si      32.21647458      48.97899078       4.87332620
Si      32.37628692      48.81390336      16.12283891
Si      39.00353025      48.97910320       4.87002021
Si      28.82973606      48.24070181       7.07223613
Si      28.84250080      41.26160313      12.72381238
Si      39.00107497      43.87028617       4.87879254
Si      28.82679244      46.35780839       1.49862890
Si      35.61082310      43.13012690       7.06840641
Si      32.21701718      45.61402094      10.52310216
Si      39.06162940      43.76793465      16.02247260
Si      35.60645514      41.25869036      12.70364911
Si      28.82710444      43.13011668       7.07475654
Si      39.01032635      45.61252878      10.52385501
Si      35.61118936      46.35945385       1.50114931
Si      32.21861786      43.86946856       4.87440637
Si      38.77148750      48.86352644      16.30628266
Ca      27.15648381      48.53276532      11.49689671
Ca      30.51514740      45.98855237      17.23192942
Ca      28.90433793      48.62657203      14.71171697
Ca      39.01439587      48.54251542       8.31123012
Ca      37.28792783      46.05758914       5.82849591
Ca      35.58100443      48.63236413      14.56478634
Ca      35.60598037      51.10018930       9.02581530
Ca      33.93337924      46.05739495       5.82620462
Ca      32.21182176      48.54493761       8.32052618
Ca      40.68909300      46.00944293      17.22150241
Ca      28.83143170      51.09450685       9.03612606
Ca      27.15415062      46.05568817       5.83212922
Ca      39.00903767      43.43466931       8.31430699
Ca      37.28925721      40.94120914       5.83703911
Ca      35.60726905      45.96753869       9.01295139
Ca      33.93217195      40.94236402       5.83314393
Ca      27.15472035      43.44850750      11.50884411
Ca      30.51411167      43.43407654      11.49035020
Ca      30.76487413      50.93954551      17.49165963
Ca      27.21863974      51.08631176      16.93311578
Ca      33.91834914      48.52991388      11.44773236
Ca      32.23623749      45.98143395      14.00993573
Ca      37.28860608      48.52667406      11.41261029
Ca      39.00529282      46.08589850      13.95934166
Ca      28.88268296      43.54847023      14.65874790
Ca      30.52191159      48.54089040      11.51440865
Ca      34.01386847      40.92515057      17.17973366
Ca      39.01418404      40.98680947      13.88671585
Ca      37.29804738      43.43188941      11.47323105
Ca      35.60538599      43.58230332      14.68117655
Ca      33.87197540      45.91638843      17.33590033
Ca      33.91971921      43.42686105      11.46943407
Ca      32.20582810      40.93829884      14.01329254
Ca      37.46167052      41.15264424      17.51129988
Ca      37.30145697      45.83894284      17.33119135
Ca      32.21484677      43.43297275       8.31610728
Ca      28.83548766      45.98587378       9.03576600
Ca      30.50399213      46.05486034       5.83327486
Ca      27.15416419      40.94376419       5.83039440
Ca      35.61013128      43.50628246       3.35914932
Ca      39.00152262      40.97746029       2.69942396
Ca      39.00206522      46.08474429       2.70106059
Ca      32.21675944      40.97853342       2.70161705
Ca      35.61010415      48.61703112       3.36281537
Ca      28.82832529      48.61587623       3.35649798
Ca      32.21815665      46.08639997       2.70011135
Ca      28.82747069      43.50850025       3.36062228
Ca      30.50243214      40.94533811       5.83252201
H       52.36316893       2.65289955      18.38441646
H       52.39273471       6.33732925      19.84843599
H       49.86348765       6.79001153      20.34195408
H       40.83014872       7.76725443      20.19350335
H       52.91214046       8.31050193      18.70091104
H       46.25282671       7.62215881      18.41572424
H       53.12013307       8.45615782      20.86168147
H       45.34775785       9.40376541      20.38148876
H       47.09690415       6.51700575      19.79485712
H       49.13743080       6.90627367      18.90115617
H       47.62516012       8.31657663      20.84776277
H       49.29583465       8.78747650      19.39792509
H       42.39531664       7.43790923      17.22800585
H       46.93789364       8.81145390      22.15315001
H       49.70285718       7.34765736      17.09008806
H       43.76828040       9.12334398      20.27048253
H       46.37538654       2.19919013      18.60792328
H       41.68719904       3.92607761      18.89566163
H       53.60313989       1.23259289      19.34949816
H       52.67602974       4.82995987      19.69896797
H       49.16877563       0.15737207      19.67255658
H       49.09472889       2.37802670      19.80257367
H       49.10471913       1.96226818      21.38439224
H       51.53781655       1.79156754      19.96415633
H       47.19943959       1.39896855      19.75994277
H       41.55745957       4.43959749      20.39579661
H       42.36347085       3.73594690      17.75268296
H       44.45689667       2.58364189      18.93226241
H       43.89747058       5.22878723      20.27487585
H       42.33883087       8.39166841      18.99835158
H       45.09532015       6.10634337      19.52621041
H       42.98201952       7.14293878      19.77869186
H       41.64582973       1.52360955      19.28219490
H       43.45131172       3.14566806      20.71403286
H       43.48085936       3.72092300      22.20444970
H       44.26187651       1.29239601      19.88003260
C       49.20865449       3.01601647      17.34874855
O       49.27086501       9.69021530      18.94977690
O       44.40088649       3.53154393      15.50856032
O       49.17367543       0.89594624      32.69065955
O       42.39040441       0.89570096      32.68836827
O       49.11972724       7.24221530      19.89915900
O       45.77747484       1.19951643      16.23116850
O       52.55485226       9.09459431      12.05348167
O       51.97014721       5.49936087      19.52704453
O       53.37165044       7.76594166      20.22066106
O       49.22141147       1.71483661      17.07208947
O       49.19004296       3.38209596      18.59376536
O       45.72351353       3.42263792      17.78291411
O       47.03572269       3.53703382      15.46432798
O       51.33872037       3.61932802      15.34090473
O       47.25877830       8.68374508      15.48241686
O       52.59312164       1.25410952      16.07756871
O       46.62757656       1.27598322      18.96845471
O       48.92122512       1.63117756      20.48851246
O       40.95410775       0.85181554      19.11887562
O       52.02653961       1.53427460      19.16478091
O       43.80390426       2.08929587      19.50253930
O       41.01170925       4.35187712      19.58451224
O       43.21180029       3.93762954      21.29635712
O       51.24772144       9.21843284       9.77876306
O       52.65896778       8.75078082      17.83805583
O       52.44429817       6.36556265      16.40652519
O       53.47523465       8.68948671      15.38031842
O       50.81673833       8.56705148      16.05193900
O       42.40179838       7.96231481      19.92024648
O       49.21967741       6.55241810      17.42159710
O       44.06436380       5.88339325      19.55084147
O       44.49338542       9.75726860      20.02783564
O       46.04594925       8.46623274      17.75537594
O       45.88942727       6.30748707      16.14176716
O       42.36548549       6.55205564      16.76614341
O       44.60709999       8.68128269      15.55226496
O       52.58230250       3.41221364      17.64556190
O       46.95519115       8.94903211      21.18925248
O       46.46688294       6.38907880      19.06361931
O       53.98371665       3.60112997      15.45514119
O       50.49608531       6.17823710      13.45281760
O       44.46133046       3.64436027       4.14901945
O       52.58122277       6.36472999      10.62418040
O       42.39214074       1.60503602       5.55848477
O       45.78358634       1.34913168       4.96065675
O       45.78529554       3.68749986       6.41732247
O       47.85813426       1.58495327       7.85500329
O       49.17444864       3.88981954       7.04156569
O       49.17746008       1.59674741       5.55645535
O       50.49324542       1.58854057       7.85958585
O       52.56661318       1.35063406       4.97136030
O       42.39256126       3.89018747       7.05960135
O       52.56643684       3.69135289       6.42082485
O       43.71184639       6.69000925       7.85421770
O       42.39458246       9.00067039       7.05786652
O       42.39310386       6.71558027       5.55593163
O       45.78231122       6.45845972       4.95627058
O       45.78080550       8.79304642       6.41804258
O       47.85650645       6.69288114       7.86105881
O       53.91365246       9.19804348       9.80995722
O       49.17539819       9.00114053       7.06005960
O       41.07868860       6.68869084       7.85559247
O       49.17740582       6.71514080       5.56336193
O       43.71015075       1.57984315       7.85614893
O       53.88774316       8.75702011       4.14198194
O       43.70677305       0.94380758       2.33740152
O       41.07558219       0.94586185       2.33857989
O       42.39051293       3.85622564       1.52036334
O       47.10451284       3.64373684       4.14600805
O       47.85883964       0.94144671       2.33910361
O       49.17857242       3.85855585       1.52065793
O       51.24446582       3.64335869       4.15117980
O       50.49041032       0.94147737       2.33821983
O       41.07487681       1.57891311       7.85683631
O       53.88707847       3.64465666       4.15085247
O       44.46096420       8.75540532       4.14649904
O       43.70826521       6.05067255       2.33602675
O       41.07646392       6.05062145       2.33753245
O       47.10386172       8.75473078       4.14888852
O       49.17528967       8.96710716       1.52386573
O       47.86044032       6.05208294       2.34119850
O       51.24456078       8.75502717       4.14947770
O       50.49116997       6.05186831       2.34224594
O       42.38923782       8.97172670       1.51997055
O       50.49372020       6.69396448       7.86632876
O       49.17400099       6.00560133      32.69052862
O       50.49095348       1.02617118      13.49478893
O       44.44540506       9.19638780       9.82635625
O       42.41029082       6.12685414      11.21199225
O       42.40076813       8.96016762      12.72459797
O       52.58302692       1.24594824      10.68922006
O       52.56272000       4.03586662      12.06965157
O       51.24540181       4.08670205       9.79571855
O       52.56951611       6.45873567       4.95509221
O       53.91100727       4.08128533       9.81192118
O       42.39142179       6.00526406      32.68696077
O       45.77550155       6.36631413      10.62725726
O       47.10943696       9.20690442       9.80128309
O       45.79876566       9.13934870      12.08287554
O       49.18376784       3.84263274      12.68067083
O       49.17466568       1.02904430      11.18750827
O       43.73084356       6.15909799      13.51080852
O       49.17956267       8.95395372      12.65425563
O       45.77832309       1.25801833      10.63812448
O       52.57277173       8.79216748       6.41463839
O       43.73312430       1.06263537      13.47204262
O       41.09544072       1.04457999      13.52861983
O       47.86337596       1.03443584      13.50596083
O       42.38674184       1.02258511      11.20331811
O       44.45042414       4.08513835       9.80187227
O       49.17073180       6.11787056      11.15703423
O       47.11349292       4.08981922       9.79529302
O       47.86231562       6.14153503      13.46538509
O       45.79069444       4.02666842      12.06251587
O       42.40417297       3.85473349      12.72580907
O       41.08608711       6.17496349      13.50669792
Si      42.39052650       0.37189373       1.49794152
Si      45.78100897       9.84514756      10.54038497
Si      42.40367106       5.49939334      12.74004775
Si      52.57762802       9.83662389      10.52729193
Si      49.17436725       0.36639525       1.49941448
Si      49.17893868       5.48291833      12.67743030
Si      49.17573732       7.36028260       7.07956823
Si      45.73320824       2.84907445      16.19660674
Si      45.78155158       8.09807078       4.87332620
Si      45.94136392       7.93298336      16.12283891
Si      52.56860725       8.09818320       4.87002021
Si      42.39481306       7.35978181       7.07223613
Si      42.40757780       0.38068313      12.72381238
Si      52.56615197       2.98936617       4.87879254
Si      42.39186944       5.47688839       1.49862890
Si      49.17590010       2.24920690       7.06840641
Si      45.78209418       4.73310094      10.52310216
Si      52.62670640       2.88701465      16.02247260
Si      49.17153214       0.37777036      12.70364911
Si      42.39218144       2.24919668       7.07475654
Si      52.57540335       4.73160878      10.52385501
Si      49.17626636       5.47853385       1.50114931
Si      45.78369486       2.98854856       4.87440637
Si      52.33656450       7.98260644      16.30628266
Ca      40.72156081       7.65184532      11.49689671
Ca      44.08022440       5.10763237      17.23192942
Ca      42.46941493       7.74565203      14.71171697
Ca      52.57947287       7.66159542       8.31123012
Ca      50.85300483       5.17666914       5.82849591
Ca      49.14608143       7.75144413      14.56478634
Ca      49.17105737      10.21926930       9.02581530
Ca      47.49845624       5.17647495       5.82620462
Ca      45.77689876       7.66401761       8.32052618
Ca      54.25417000       5.12852293      17.22150241
Ca      42.39650870      10.21358685       9.03612606
Ca      40.71922762       5.17476817       5.83212922
Ca      52.57411467       2.55374931       8.31430699
Ca      50.85433421       0.06028914       5.83703911
Ca      49.17234605       5.08661869       9.01295139
Ca      47.49724895       0.06144402       5.83314393
Ca      40.71979735       2.56758750      11.50884411
Ca      44.07918867       2.55315654      11.49035020
Ca      44.32995113      10.05862551      17.49165963
Ca      40.78371674      10.20539176      16.93311578
Ca      47.48342614       7.64899388      11.44773236
Ca      45.80131449       5.10051395      14.00993573
Ca      50.85368308       7.64575406      11.41261029
Ca      52.57036982       5.20497850      13.95934166
Ca      42.44775996       2.66755023      14.65874790
Ca      44.08698859       7.65997040      11.51440865
Ca      47.57894547       0.04423057      17.17973366
Ca      52.57926104       0.10588947      13.88671585
Ca      50.86312438       2.55096941      11.47323105
Ca      49.17046299       2.70138332      14.68117655
Ca      47.43705240       5.03546843      17.33590033
Ca      47.48479621       2.54594105      11.46943407
Ca      45.77090510       0.05737884      14.01329254
Ca      51.02674752       0.27172424      17.51129988
Ca      50.86653397       4.95802284      17.33119135
Ca      45.77992377       2.55205275       8.31610728
Ca      42.40056466       5.10495378       9.03576600
Ca      44.06906913       5.17394034       5.83327486
Ca      40.71924119       0.06284419       5.83039440
Ca      49.17520828       2.62536246       3.35914932
Ca      52.56659962       0.09654029       2.69942396
Ca      52.56714222       5.20382429       2.70106059
Ca      45.78183644       0.09761342       2.70161705
Ca      49.17518115       7.73611112       3.36281537
Ca      42.39340229       7.73495623       3.35649798
Ca      45.78323365       5.20547997       2.70011135
Ca      42.39254769       2.62758025       3.36062228
Ca      44.06750914       0.06441811       5.83252201
H       52.36316893      12.87312955      18.38441646
H       52.39273471      16.55755925      19.84843599
H       49.86348765      17.01024153      20.34195408
H       40.83014872      17.98748443      20.19350335
H       52.91214046      18.53073193      18.70091104
H       46.25282671      17.84238881      18.41572424
H       53.12013307      18.67638782      20.86168147
H       45.34775785      19.62399541      20.38148876
H       47.09690415      16.73723575      19.79485712
H       49.13743080      17.12650367      18.90115617
H       47.62516012      18.53680663      20.84776277
H       49.29583465      19.00770650      19.39792509
H       42.39531664      17.65813923      17.22800585
H       46.93789364      19.03168390      22.15315001
H       49.70285718      17.56788736      17.09008806
H       43.76828040      19.34357398      20.27048253
H       46.37538654      12.41942013      18.60792328
H       41.68719904      14.14630761      18.89566163
H       53.60313989      11.45282289      19.34949816
H       52.67602974      15.05018987      19.69896797
H       49.16877563      10.37760207      19.67255658
H       49.09472889      12.59825670      19.80257367
H       49.10471913      12.18249818      21.38439224
H       51.53781655      12.01179754      19.96415633
H       47.19943959      11.61919855      19.75994277
H       41.55745957      14.65982749      20.39579661
H       42.36347085      13.95617690      17.75268296
H       44.45689667      12.80387189      18.93226241
H       43.89747058      15.44901723      20.27487585
H       42.33883087      18.61189841      18.99835158
H       45.09532015      16.32657337      19.52621041
H       42.98201952      17.36316878      19.77869186
H       41.64582973      11.74383955      19.28219490
H       43.45131172      13.36589806      20.71403286
H       43.48085936      13.94115300      22.20444970
H       44.26187651      11.51262601      19.88003260
C       49.20865449      13.23624647      17.34874855
O       49.27086501      19.91044530      18.94977690
O       44.40088649      13.75177393      15.50856032
O       49.17367543      11.11617624      32.69065955
O       42.39040441      11.11593096      32.68836827
O       49.11972724      17.46244530      19.89915900
O       45.77747484      11.41974643      16.23116850
O       52.55485226      19.31482431      12.05348167
O       51.97014721      15.71959087      19.52704453
O       53.37165044      17.98617166      20.22066106
O       49.22141147      11.93506661      17.07208947
O       49.19004296      13.60232596      18.59376536
O       45.72351353      13.64286792      17.78291411
O       47.03572269      13.75726382      15.46432798
O       51.33872037      13.83955802      15.34090473
O       47.25877830      18.90397508      15.48241686
O       52.59312164      11.47433952      16.07756871
O       46.62757656      11.49621322      18.96845471
O       48.92122512      11.85140756      20.48851246
O       40.95410775      11.07204554      19.11887562
O       52.02653961      11.75450460      19.16478091
O       43.80390426      12.30952587      19.50253930
O       41.01170925      14.57210712      19.58451224
O       43.21180029      14.15785954      21.29635712
O       51.24772144      19.43866284       9.77876306
O       52.65896778      18.97101082      17.83805583
O       52.44429817      16.58579265      16.40652519
O       53.47523465      18.90971671      15.38031842
O       50.81673833      18.78728148      16.05193900
O       42.40179838      18.18254481      19.92024648
O       49.21967741      16.77264810      17.42159710
O       44.06436380      16.10362325      19.55084147
O       44.49338542      19.97749860      20.02783564
O       46.04594925      18.68646274      17.75537594
O       45.88942727      16.52771707      16.14176716
O       42.36548549      16.77228564      16.76614341
O       44.60709999      18.90151269      15.55226496
O       52.58230250      13.63244364      17.64556190
O       46.95519115      19.16926211      21.18925248
O       46.46688294      16.60930880      19.06361931
O       53.98371665      13.82135997      15.45514119
O       50.49608531      16.39846710      13.45281760
O       44.46133046      13.86459027       4.14901945
O       52.58122277      16.58495999      10.62418040
O       42.39214074      11.82526602       5.55848477
O       45.78358634      11.56936168       4.96065675
O       45.78529554      13.90772986       6.41732247
O       47.85813426      11.80518327       7.85500329
O       49.17444864      14.11004954       7.04156569
O       49.17746008      11.81697741       5.55645535
O       50.49324542      11.80877057       7.85958585
O       52.56661318      11.57086406       4.97136030
O       42.39256126      14.11041747       7.05960135
O       52.56643684      13.91158289       6.42082485
O       43.71184639      16.91023925       7.85421770
O       42.39458246      19.22090039       7.05786652
O       42.39310386      16.93581027       5.55593163
O       45.78231122      16.67868972       4.95627058
O       45.78080550      19.01327642       6.41804258
O       47.85650645      16.91311114       7.86105881
O       53.91365246      19.41827348       9.80995722
O       49.17539819      19.22137053       7.06005960
O       41.07868860      16.90892084       7.85559247
O       49.17740582      16.93537080       5.56336193
O       43.71015075      11.80007315       7.85614893
O       53.88774316      18.97725011       4.14198194
O       43.70677305      11.16403758       2.33740152
O       41.07558219      11.16609185       2.33857989
O       42.39051293      14.07645564       1.52036334
O       47.10451284      13.86396684       4.14600805
O       47.85883964      11.16167671       2.33910361
O       49.17857242      14.07878585       1.52065793
O       51.24446582      13.86358869       4.15117980
O       50.49041032      11.16170737       2.33821983
O       41.07487681      11.79914311       7.85683631
O       53.88707847      13.86488666       4.15085247
O       44.46096420      18.97563532       4.14649904
O       43.70826521      16.27090255       2.33602675
O       41.07646392      16.27085145       2.33753245
O       47.10386172      18.97496078       4.14888852
O       49.17528967      19.18733716       1.52386573
O       47.86044032      16.27231294       2.34119850
O       51.24456078      18.97525717       4.14947770
O       50.49116997      16.27209831       2.34224594
O       42.38923782      19.19195670       1.51997055
O       50.49372020      16.91419448       7.86632876
O       49.17400099      16.22583133      32.69052862
O       50.49095348      11.24640118      13.49478893
O       44.44540506      19.41661780       9.82635625
O       42.41029082      16.34708414      11.21199225
O       42.40076813      19.18039762      12.72459797
O       52.58302692      11.46617824      10.68922006
O       52.56272000      14.25609662      12.06965157
O       51.24540181      14.30693205       9.79571855
O       52.56951611      16.67896567       4.95509221
O       53.91100727      14.30151533       9.81192118
O       42.39142179      16.22549406      32.68696077
O       45.77550155      16.58654413      10.62725726
O       47.10943696      19.42713442       9.80128309
O       45.79876566      19.35957870      12.08287554
O       49.18376784      14.06286274      12.68067083
O       49.17466568      11.24927430      11.18750827
O       43.73084356      16.37932799      13.51080852
O       49.17956267      19.17418372      12.65425563
O       45.77832309      11.47824833      10.63812448
O       52.57277173      19.01239748       6.41463839
O       43.73312430      11.28286537      13.47204262
O       41.09544072      11.26480999      13.52861983
O       47.86337596      11.25466584      13.50596083
O       42.38674184      11.24281511      11.20331811
O       44.45042414      14.30536835       9.80187227
O       49.17073180      16.33810056      11.15703423
O       47.11349292      14.31004922       9.79529302
O       47.86231562      16.36176503      13.46538509
O       45.79069444      14.24689842      12.06251587
O       42.40417297      14.07496349      12.72580907
O       41.08608711      16.39519349      13.50669792
Si      42.39052650      10.59212373       1.49794152
Si      45.78100897      20.06537756      10.54038497
Si      42.40367106      15.71962334      12.74004775
Si      52.57762802      20.05685389      10.52729193
Si      49.17436725      10.58662525       1.49941448
Si      49.17893868      15.70314833      12.67743030
Si      49.17573732      17.58051260       7.07956823
Si      45.73320824      13.06930445      16.19660674
Si      45.78155158      18.31830078       4.87332620
Si      45.94136392      18.15321336      16.12283891
Si      52.56860725      18.31841320       4.87002021
Si      42.39481306      17.58001181       7.07223613
Si      42.40757780      10.60091313      12.72381238
Si      52.56615197      13.20959617       4.87879254
Si      42.39186944      15.69711839       1.49862890
Si      49.17590010      12.46943690       7.06840641
Si      45.78209418      14.95333094      10.52310216
Si      52.62670640      13.10724465      16.02247260
Si      49.17153214      10.59800036      12.70364911
Si      42.39218144      12.46942668       7.07475654
Si      52.57540335      14.95183878      10.52385501
Si      49.17626636      15.69876385       1.50114931
Si      45.78369486      13.20877856       4.87440637
Si      52.33656450      18.20283644      16.30628266
Ca      40.72156081      17.87207532      11.49689671
Ca      44.08022440      15.32786237      17.23192942
Ca      42.46941493      17.96588203      14.71171697
Ca      52.57947287      17.88182542       8.31123012
Ca      50.85300483      15.39689914       5.82849591
Ca      49.14608143      17.97167413      14.56478634
Ca      49.17105737      20.43949930       9.02581530
Ca      47.49845624      15.39670495       5.82620462
Ca      45.77689876      17.88424761       8.32052618
Ca      54.25417000      15.34875293      17.22150241
Ca      42.39650870      20.43381685       9.03612606
Ca      40.71922762      15.39499817       5.83212922
Ca      52.57411467      12.77397931       8.31430699
Ca      50.85433421      10.28051914       5.83703911
Ca      49.17234605      15.30684869       9.01295139
Ca      47.49724895      10.28167402       5.83314393
Ca      40.71979735      12.78781750      11.50884411
Ca      44.07918867      12.77338654      11.49035020
Ca      44.32995113      20.27885551      17.49165963
Ca      40.78371674      20.42562176      16.93311578
Ca      47.48342614      17.86922388      11.44773236
Ca      45.80131449      15.32074395      14.00993573
Ca      50.85368308      17.86598406      11.41261029
Ca      52.57036982      15.42520850      13.95934166
Ca      42.44775996      12.88778023      14.65874790
Ca      44.08698859      17.88020040      11.51440865
Ca      47.57894547      10.26446057      17.17973366
Ca      52.57926104      10.32611947      13.88671585
Ca      50.86312438      12.77119941      11.47323105
Ca      49.17046299      12.92161332      14.68117655
Ca      47.43705240      15.25569843      17.33590033
Ca      47.48479621      12.76617105      11.46943407
Ca      45.77090510      10.27760884      14.01329254
Ca      51.02674752      10.49195424      17.51129988
Ca      50.86653397      15.17825284      17.33119135
Ca      45.77992377      12.77228275       8.31610728
Ca      42.40056466      15.32518378       9.03576600
Ca      44.06906913      15.39417034       5.83327486
Ca      40.71924119      10.28307419       5.83039440
Ca      49.17520828      12.84559246       3.35914932
Ca      52.56659962      10.31677029       2.69942396
Ca      52.56714222      15.42405429       2.70106059
Ca      45.78183644      10.31784342       2.70161705
Ca      49.17518115      17.95634112       3.36281537
Ca      42.39340229      17.95518623       3.35649798
Ca      45.78323365      15.42570997       2.70011135
Ca      42.39254769      12.84781025       3.36062228
Ca      44.06750914      10.28464811       5.83252201
H       52.36316893      23.09335955      18.38441646
H       52.39273471      26.77778925      19.84843599
H       49.86348765      27.23047153      20.34195408
H       40.83014872      28.20771443      20.19350335
H       52.91214046      28.75096193      18.70091104
H       46.25282671      28.06261881      18.41572424
H       53.12013307      28.89661782      20.86168147
H       45.34775785      29.84422541      20.38148876
H       47.09690415      26.95746575      19.79485712
H       49.13743080      27.34673367      18.90115617
H       47.62516012      28.75703663      20.84776277
H       49.29583465      29.22793650      19.39792509
H       42.39531664      27.87836923      17.22800585
H       46.93789364      29.25191390      22.15315001
H       49.70285718      27.78811736      17.09008806
H       43.76828040      29.56380398      20.27048253
H       46.37538654      22.63965013      18.60792328
H       41.68719904      24.36653761      18.89566163
H       53.60313989      21.67305289      19.34949816
H       52.67602974      25.27041987      19.69896797
H       49.16877563      20.59783207      19.67255658
H       49.09472889      22.81848670      19.80257367
H       49.10471913      22.40272818      21.38439224
H       51.53781655      22.23202754      19.96415633
H       47.19943959      21.83942855      19.75994277
H       41.55745957      24.88005749      20.39579661
H       42.36347085      24.17640690      17.75268296
H       44.45689667      23.02410189      18.93226241
H       43.89747058      25.66924723      20.27487585
H       42.33883087      28.83212841      18.99835158
H       45.09532015      26.54680337      19.52621041
H       42.98201952      27.58339878      19.77869186
H       41.64582973      21.96406955      19.28219490
H       43.45131172      23.58612806      20.71403286
H       43.48085936      24.16138300      22.20444970
H       44.26187651      21.73285601      19.88003260
C       49.20865449      23.45647647      17.34874855
O       49.27086501      30.13067530      18.94977690
O       44.40088649      23.97200393      15.50856032
O       49.17367543      21.33640624      32.69065955
O       42.39040441      21.33616096      32.68836827
O       49.11972724      27.68267530      19.89915900
O       45.77747484      21.63997643      16.23116850
O       52.55485226      29.53505431      12.05348167
O       51.97014721      25.93982087      19.52704453
O       53.37165044      28.20640166      20.22066106
O       49.22141147      22.15529661      17.07208947
O       49.19004296      23.82255596      18.59376536
O       45.72351353      23.86309792      17.78291411
O       47.03572269      23.97749382      15.46432798
O       51.33872037      24.05978802      15.34090473
O       47.25877830      29.12420508      15.48241686
O       52.59312164      21.69456952      16.07756871
O       46.62757656      21.71644322      18.96845471
O       48.92122512      22.07163756      20.48851246
O       40.95410775      21.29227554      19.11887562
O       52.02653961      21.97473460      19.16478091
O       43.80390426      22.52975587      19.50253930
O       41.01170925      24.79233712      19.58451224
O       43.21180029      24.37808954      21.29635712
O       51.24772144      29.65889284       9.77876306
O       52.65896778      29.19124082      17.83805583
O       52.44429817      26.80602265      16.40652519
O       53.47523465      29.12994671      15.38031842
O       50.81673833      29.00751148      16.05193900
O       42.40179838      28.40277481      19.92024648
O       49.21967741      26.99287810      17.42159710
O       44.06436380      26.32385325      19.55084147
O       44.49338542      30.19772860      20.02783564
O       46.04594925      28.90669274      17.75537594
O       45.88942727      26.74794707      16.14176716
O       42.36548549      26.99251564      16.76614341
O       44.60709999      29.12174269      15.55226496
O       52.58230250      23.85267364      17.64556190
O       46.95519115      29.38949211      21.18925248
O       46.46688294      26.82953880      19.06361931
O       53.98371665      24.04158997      15.45514119
O       50.49608531      26.61869710      13.45281760
O       44.46133046      24.08482027       4.14901945
O       52.58122277      26.80518999      10.62418040
O       42.39214074      22.04549602       5.55848477
O       45.78358634      21.78959168       4.96065675
O       45.78529554      24.12795986       6.41732247
O       47.85813426      22.02541327       7.85500329
O       49.17444864      24.33027954       7.04156569
O       49.17746008      22.03720741       5.55645535
O       50.49324542      22.02900057       7.85958585
O       52.56661318      21.79109406       4.97136030
O       42.39256126      24.33064747       7.05960135
O       52.56643684      24.13181289       6.42082485
O       43.71184639      27.13046925       7.85421770
O       42.39458246      29.44113039       7.05786652
O       42.39310386      27.15604027       5.55593163
O       45.78231122      26.89891972       4.95627058
O       45.78080550      29.23350642       6.41804258
O       47.85650645      27.13334114       7.86105881
O       53.91365246      29.63850348       9.80995722
O       49.17539819      29.44160053       7.06005960
O       41.07868860      27.12915084       7.85559247
O       49.17740582      27.15560080       5.56336193
O       43.71015075      22.02030315       7.85614893
O       53.88774316      29.19748011       4.14198194
O       43.70677305      21.38426758       2.33740152
O       41.07558219      21.38632185       2.33857989
O       42.39051293      24.29668564       1.52036334
O       47.10451284      24.08419684       4.14600805
O       47.85883964      21.38190671       2.33910361
O       49.17857242      24.29901585       1.52065793
O       51.24446582      24.08381869       4.15117980
O       50.49041032      21.38193737       2.33821983
O       41.07487681      22.01937311       7.85683631
O       53.88707847      24.08511666       4.15085247
O       44.46096420      29.19586532       4.14649904
O       43.70826521      26.49113255       2.33602675
O       41.07646392      26.49108145       2.33753245
O       47.10386172      29.19519078       4.14888852
O       49.17528967      29.40756716       1.52386573
O       47.86044032      26.49254294       2.34119850
O       51.24456078      29.19548717       4.14947770
O       50.49116997      26.49232831       2.34224594
O       42.38923782      29.41218670       1.51997055
O       50.49372020      27.13442448       7.86632876
O       49.17400099      26.44606133      32.69052862
O       50.49095348      21.46663118      13.49478893
O       44.44540506      29.63684780       9.82635625
O       42.41029082      26.56731414      11.21199225
O       42.40076813      29.40062762      12.72459797
O       52.58302692      21.68640824      10.68922006
O       52.56272000      24.47632662      12.06965157
O       51.24540181      24.52716205       9.79571855
O       52.56951611      26.89919567       4.95509221
O       53.91100727      24.52174533       9.81192118
O       42.39142179      26.44572406      32.68696077
O       45.77550155      26.80677413      10.62725726
O       47.10943696      29.64736442       9.80128309
O       45.79876566      29.57980870      12.08287554
O       49.18376784      24.28309274      12.68067083
O       49.17466568      21.46950430      11.18750827
O       43.73084356      26.59955799      13.51080852
O       49.17956267      29.39441372      12.65425563
O       45.77832309      21.69847833      10.63812448
O       52.57277173      29.23262748       6.41463839
O       43.73312430      21.50309537      13.47204262
O       41.09544072      21.48503999      13.52861983
O       47.86337596      21.47489584      13.50596083
O       42.38674184      21.46304511      11.20331811
O       44.45042414      24.52559835       9.80187227
O       49.17073180      26.55833056      11.15703423
O       47.11349292      24.53027922       9.79529302
O       47.86231562      26.58199503      13.46538509
O       45.79069444      24.46712842      12.06251587
O       42.40417297      24.29519349      12.72580907
O       41.08608711      26.61542349      13.50669792
Si      42.39052650      20.81235373       1.49794152
Si      45.78100897      30.28560756      10.54038497
Si      42.40367106      25.93985334      12.74004775
Si      52.57762802      30.27708389      10.52729193
Si      49.17436725      20.80685525       1.49941448
Si      49.17893868      25.92337833      12.67743030
Si      49.17573732      27.80074260       7.07956823
Si      45.73320824      23.28953445      16.19660674
Si      45.78155158      28.53853078       4.87332620
Si      45.94136392      28.37344336      16.12283891
Si      52.56860725      28.53864320       4.87002021
Si      42.39481306      27.80024181       7.07223613
Si      42.40757780      20.82114313      12.72381238
Si      52.56615197      23.42982617       4.87879254
Si      42.39186944      25.91734839       1.49862890
Si      49.17590010      22.68966690       7.06840641
Si      45.78209418      25.17356094      10.52310216
Si      52.62670640      23.32747465      16.02247260
Si      49.17153214      20.81823036      12.70364911
Si      42.39218144      22.68965668       7.07475654
Si      52.57540335      25.17206878      10.52385501
Si      49.17626636      25.91899385       1.50114931
Si      45.78369486      23.42900856       4.87440637
Si      52.33656450      28.42306644      16.30628266
Ca      40.72156081      28.09230532      11.49689671
Ca      44.08022440      25.54809237      17.23192942
Ca      42.46941493      28.18611203      14.71171697
Ca      52.57947287      28.10205542       8.31123012
Ca      50.85300483      25.61712914       5.82849591
Ca      49.14608143      28.19190413      14.56478634
Ca      49.17105737      30.65972930       9.02581530
Ca      47.49845624      25.61693495       5.82620462
Ca      45.77689876      28.10447761       8.32052618
Ca      54.25417000      25.56898293      17.22150241
Ca      42.39650870      30.65404685       9.03612606
Ca      40.71922762      25.61522817       5.83212922
Ca      52.57411467      22.99420931       8.31430699
Ca      50.85433421      20.50074914       5.83703911
Ca      49.17234605      25.52707869       9.01295139
Ca      47.49724895      20.50190402       5.83314393
Ca      40.71979735      23.00804750      11.50884411
Ca      44.07918867      22.99361654      11.49035020
Ca      44.32995113      30.49908551      17.49165963
Ca      40.78371674      30.64585176      16.93311578
Ca      47.48342614      28.08945388      11.44773236
Ca      45.80131449      25.54097395      14.00993573
Ca      50.85368308      28.08621406      11.41261029
Ca      52.57036982      25.64543850      13.95934166
Ca      42.44775996      23.10801023      14.65874790
Ca      44.08698859      28.10043040      11.51440865
Ca      47.57894547      20.48469057      17.17973366
Ca      52.57926104      20.54634947      13.88671585
Ca      50.86312438      22.99142941      11.47323105
Ca      49.17046299      23.14184332      14.68117655
Ca      47.43705240      25.47592843      17.33590033
Ca      47.48479621      22.98640105      11.46943407
Ca      45.77090510      20.49783884      14.01329254
Ca      51.02674752      20.71218424      17.51129988
Ca      50.86653397      25.39848284      17.33119135
Ca      45.77992377      22.99251275       8.31610728
Ca      42.40056466      25.54541378       9.03576600
Ca      44.06906913      25.61440034       5.83327486
Ca      40.71924119      20.50330419       5.83039440
Ca      49.17520828      23.06582246       3.35914932
Ca      52.56659962      20.53700029       2.69942396
Ca      52.56714222      25.64428429       2.70106059
Ca      45.78183644      20.53807342       2.70161705
Ca      49.17518115      28.17657112       3.36281537
Ca      42.39340229      28.17541623       3.35649798
Ca      45.78323365      25.64593997       2.70011135
Ca      42.39254769      23.06804025       3.36062228
Ca      44.06750914      20.50487811       5.83252201
H       52.36316893      33.31358955      18.38441646
H       52.39273471      36.99801925      19.84843599
H       49.86348765      37.45070153      20.34195408
H       40.83014872      38.42794443      20.19350335
H       52.91214046      38.97119193      18.70091104
H       46.25282671      38.28284881      18.41572424
H       53.12013307      39.11684782      20.86168147
H       45.34775785      40.06445541      20.38148876
H       47.09690415      37.17769575      19.79485712
H       49.13743080      37.56696367      18.90115617
H       47.62516012      38.97726663      20.84776277
H       49.29583465      39.44816650      19.39792509
H       42.39531664      38.09859923      17.22800585
H       46.93789364      39.47214390      22.15315001
H       49.70285718      38.00834736      17.09008806
H       43.76828040      39.78403398      20.27048253
H       46.37538654      32.85988013      18.60792328
H       41.68719904      34.58676761      18.89566163
H       53.60313989      31.89328289      19.34949816
H       52.67602974      35.49064987      19.69896797
H       49.16877563      30.81806207      19.67255658
H       49.09472889      33.03871670      19.80257367
H       49.10471913      32.62295818      21.38439224
H       51.53781655      32.45225754      19.96415633
H       47.19943959      32.05965855      19.75994277
H       41.55745957      35.10028749      20.39579661
H       42.36347085      34.39663690      17.75268296
H       44.45689667      33.24433189      18.93226241
H       43.89747058      35.88947723      20.27487585
H       42.33883087      39.05235841      18.99835158
H       45.09532015      36.76703337      19.52621041
H       42.98201952      37.80362878      19.77869186
H       41.64582973      32.18429955      19.28219490
H       43.45131172      33.80635806      20.71403286
H       43.48085936      34.38161300      22.20444970
H       44.26187651      31.95308601      19.88003260
C       49.20865449      33.67670647      17.34874855
O       49.27086501      40.35090530      18.94977690
O       44.40088649      34.19223393      15.50856032
O       49.17367543      31.55663624      32.69065955
O       42.39040441      31.55639096      32.68836827
O       49.11972724      37.90290530      19.89915900
O       45.77747484      31.86020643      16.23116850
O       52.55485226      39.75528431      12.05348167
O       51.97014721      36.16005087      19.52704453
O       53.37165044      38.42663166      20.22066106
O       49.22141147      32.37552661      17.07208947
O       49.19004296      34.04278596      18.59376536
O       45.72351353      34.08332792      17.78291411
O       47.03572269      34.19772382      15.46432798
O       51.33872037      34.28001802      15.34090473
O       47.25877830      39.34443508      15.48241686
O       52.59312164      31.91479952      16.07756871
O       46.62757656      31.93667322      18.96845471
O       48.92122512      32.29186756      20.48851246
O       40.95410775      31.51250554      19.11887562
O       52.02653961      32.19496460      19.16478091
O       43.80390426      32.74998587      19.50253930
O       41.01170925      35.01256712      19.58451224
O       43.21180029      34.59831954      21.29635712
O       51.24772144      39.87912284       9.77876306
O       52.65896778      39.41147082      17.83805583
O       52.44429817      37.02625265      16.40652519
O       53.47523465      39.35017671      15.38031842
O       50.81673833      39.22774148      16.05193900
O       42.40179838      38.62300481      19.92024648
O       49.21967741      37.21310810      17.42159710
O       44.06436380      36.54408325      19.55084147
O       44.49338542      40.41795860      20.02783564
O       46.04594925      39.12692274      17.75537594
O       45.88942727      36.96817707      16.14176716
O       42.36548549      37.21274564      16.76614341
O       44.60709999      39.34197269      15.55226496
O       52.58230250      34.07290364      17.64556190
O       46.95519115      39.60972211      21.18925248
O       46.46688294      37.04976880      19.06361931
O       53.98371665      34.26181997      15.45514119
O       50.49608531      36.83892710      13.45281760
O       44.46133046      34.30505027       4.14901945
O       52.58122277      37.02541999      10.62418040
O       42.39214074      32.26572602       5.55848477
O       45.78358634      32.00982168       4.96065675
O       45.78529554      34.34818986       6.41732247
O       47.85813426      32.24564327       7.85500329
O       49.17444864      34.55050954       7.04156569
O       49.17746008      32.25743741       5.55645535
O       50.49324542      32.24923057       7.85958585
O       52.56661318      32.01132406       4.97136030
O       42.39256126      34.55087747       7.05960135
O       52.56643684      34.35204289       6.42082485
O       43.71184639      37.35069925       7.85421770
O       42.39458246      39.66136039       7.05786652
O       42.39310386      37.37627027       5.55593163
O       45.78231122      37.11914972       4.95627058
O       45.78080550      39.45373642       6.41804258
O       47.85650645      37.35357114       7.86105881
O       53.91365246      39.85873348       9.80995722
O       49.17539819      39.66183053       7.06005960
O       41.07868860      37.34938084       7.85559247
O       49.17740582      37.37583080       5.56336193
O       43.71015075      32.24053315       7.85614893
O       53.88774316      39.41771011       4.14198194
O       43.70677305      31.60449758       2.33740152
O       41.07558219      31.60655185       2.33857989
O       42.39051293      34.51691564       1.52036334
O       47.10451284      34.30442684       4.14600805
O       47.85883964      31.60213671       2.33910361
O       49.17857242      34.51924585       1.52065793
O       51.24446582      34.30404869       4.15117980
O       50.49041032      31.60216737       2.33821983
O       41.07487681      32.23960311       7.85683631
O       53.88707847      34.30534666       4.15085247
O       44.46096420      39.41609532       4.14649904
O       43.70826521      36.71136255       2.33602675
O       41.07646392      36.71131145       2.33753245
O       47.10386172      39.41542078       4.14888852
O       49.17528967      39.62779716       1.52386573
O       47.86044032      36.71277294       2.34119850
O       51.24456078      39.41571717       4.14947770
O       50.49116997      36.71255831       2.34224594
O       42.38923782      39.63241670       1.51997055
O       50.49372020      37.35465448       7.86632876
O       49.17400099      36.66629133      32.69052862
O       50.49095348      31.68686118      13.49478893
O       44.44540506      39.85707780       9.82635625
O       42.41029082      36.78754414      11.21199225
O       42.40076813      39.62085762      12.72459797
O       52.58302692      31.90663824      10.68922006
O       52.56272000      34.69655662      12.06965157
O       51.24540181      34.74739205       9.79571855
O       52.56951611      37.11942567       4.95509221
O       53.91100727      34.74197533       9.81192118
O       42.39142179      36.66595406      32.68696077
O       45.77550155      37.02700413      10.62725726
O       47.10943696      39.86759442       9.80128309
O       45.79876566      39.80003870      12.08287554
O       49.18376784      34.50332274      12.68067083
O       49.17466568      31.68973430      11.18750827
O       43.73084356      36.81978799      13.51080852
O       49.17956267      39.61464372      12.65425563
O       45.77832309      31.91870833      10.63812448
O       52.57277173      39.45285748       6.41463839
O       43.73312430      31.72332537      13.47204262
O       41.09544072      31.70526999      13.52861983
O       47.86337596      31.69512584      13.50596083
O       42.38674184      31.68327511      11.20331811
O       44.45042414      34.74582835       9.80187227
O       49.17073180      36.77856056      11.15703423
O       47.11349292      34.75050922       9.79529302
O       47.86231562      36.80222503      13.46538509
O       45.79069444      34.68735842      12.06251587
O       42.40417297      34.51542349      12.72580907
O       41.08608711      36.83565349      13.50669792
Si      42.39052650      31.03258373       1.49794152
Si      45.78100897      40.50583756      10.54038497
Si      42.40367106      36.16008334      12.74004775
Si      52.57762802      40.49731389      10.52729193
Si      49.17436725      31.02708525       1.49941448
Si      49.17893868      36.14360833      12.67743030
Si      49.17573732      38.02097260       7.07956823
Si      45.73320824      33.50976445      16.19660674
Si      45.78155158      38.75876078       4.87332620
Si      45.94136392      38.59367336      16.12283891
Si      52.56860725      38.75887320       4.87002021
Si      42.39481306      38.02047181       7.07223613
Si      42.40757780      31.04137313      12.72381238
Si      52.56615197      33.65005617       4.87879254
Si      42.39186944      36.13757839       1.49862890
Si      49.17590010      32.90989690       7.06840641
Si      45.78209418      35.39379094      10.52310216
Si      52.62670640      33.54770465      16.02247260
Si      49.17153214      31.03846036      12.70364911
Si      42.39218144      32.90988668       7.07475654
Si      52.57540335      35.39229878      10.52385501
Si      49.17626636      36.13922385       1.50114931
Si      45.78369486      33.64923856       4.87440637
Si      52.33656450      38.64329644      16.30628266
Ca      40.72156081      38.31253532      11.49689671
Ca      44.08022440      35.76832237      17.23192942
Ca      42.46941493      38.40634203      14.71171697
Ca      52.57947287      38.32228542       8.31123012
Ca      50.85300483      35.83735914       5.82849591
Ca      49.14608143      38.41213413      14.56478634
Ca      49.17105737      40.87995930       9.02581530
Ca      47.49845624      35.83716495       5.82620462
Ca      45.77689876      38.32470761       8.32052618
Ca      54.25417000      35.78921293      17.22150241
Ca      42.39650870      40.87427685       9.03612606
Ca      40.71922762      35.83545817       5.83212922
Ca      52.57411467      33.21443931       8.31430699
Ca      50.85433421      30.72097914       5.83703911
Ca      49.17234605      35.74730869       9.01295139
Ca      47.49724895      30.72213402       5.83314393
Ca      40.71979735      33.22827750      11.50884411
Ca      44.07918867      33.21384654      11.49035020
Ca      44.32995113      40.71931551      17.49165963
Ca      40.78371674      40.86608176      16.93311578
Ca      47.48342614      38.30968388      11.44773236
Ca      45.80131449      35.76120395      14.00993573
Ca      50.85368308      38.30644406      11.41261029
Ca      52.57036982      35.86566850      13.95934166
Ca      42.44775996      33.32824023      14.65874790
Ca      44.08698859      38.32066040      11.51440865
Ca      47.57894547      30.70492057      17.17973366
Ca      52.57926104      30.76657947      13.88671585
Ca      50.86312438      33.21165941      11.47323105
Ca      49.17046299      33.36207332      14.68117655
Ca      47.43705240      35.69615843      17.33590033
Ca      47.48479621      33.20663105      11.46943407
Ca      45.77090510      30.71806884      14.01329254
Ca      51.02674752      30.93241424      17.51129988
Ca      50.86653397      35.61871284      17.33119135
Ca      45.77992377      33.21274275       8.31610728
Ca      42.40056466      35.76564378       9.03576600
Ca      44.06906913      35.83463034       5.83327486
Ca      40.71924119      30.72353419       5.83039440
Ca      49.17520828      33.28605246       3.35914932
Ca      52.56659962      30.75723029       2.69942396
Ca      52.56714222      35.86451429       2.70106059
Ca      45.78183644      30.75830342       2.70161705
Ca      49.17518115      38.39680112       3.36281537
Ca      42.39340229      38.39564623       3.35649798
Ca      45.78323365      35.86616997       2.70011135
Ca      42.39254769      33.28827025       3.36062228
Ca      44.06750914      30.72510811       5.83252201
H       52.36316893      43.53381955      18.38441646
H       52.39273471      47.21824925      19.84843599
H       49.86348765      47.67093153      20.34195408
H       40.83014872      48.64817443      20.19350335
H       52.91214046      49.19142193      18.70091104
H       46.25282671      48.50307881      18.41572424
H       53.12013307      49.33707782      20.86168147
H       45.34775785      50.28468541      20.38148876
H       47.09690415      47.39792575      19.79485712
H       49.13743080      47.78719367      18.90115617
H       47.62516012      49.19749663      20.84776277
H       49.29583465      49.66839650      19.39792509
H       42.39531664      48.31882923      17.22800585
H       46.93789364      49.69237390      22.15315001
H       49.70285718      48.22857736      17.09008806
H       43.76828040      50.00426398      20.27048253
H       46.37538654      43.08011013      18.60792328
H       41.68719904      44.80699761      18.89566163
H       53.60313989      42.11351289      19.34949816
H       52.67602974      45.71087987      19.69896797
H       49.16877563      41.03829207      19.67255658
H       49.09472889      43.25894670      19.80257367
H       49.10471913      42.84318818      21.38439224
H       51.53781655      42.67248754      19.96415633
H       47.19943959      42.27988855      19.75994277
H       41.55745957      45.32051749      20.39579661
H       42.36347085      44.61686690      17.75268296
H       44.45689667      43.46456189      18.93226241
H       43.89747058      46.10970723      20.27487585
H       42.33883087      49.27258841      18.99835158
H       45.09532015      46.98726337      19.52621041
H       42.98201952      48.02385878      19.77869186
H       41.64582973      42.40452955      19.28219490
H       43.45131172      44.02658806      20.71403286
H       43.48085936      44.60184300      22.20444970
H       44.26187651      42.17331601      19.88003260
C       49.20865449      43.89693647      17.34874855
O       49.27086501      50.57113530      18.94977690
O       44.40088649      44.41246393      15.50856032
O       49.17367543      41.77686624      32.69065955
O       42.39040441      41.77662096      32.68836827
O       49.11972724      48.12313530      19.89915900
O       45.77747484      42.08043643      16.23116850
O       52.55485226      49.97551431      12.05348167
O       51.97014721      46.38028087      19.52704453
O       53.37165044      48.64686166      20.22066106
O       49.22141147      42.59575661      17.07208947
O       49.19004296      44.26301596      18.59376536
O       45.72351353      44.30355792      17.78291411
O       47.03572269      44.41795382      15.46432798
O       51.33872037      44.50024802      15.34090473
O       47.25877830      49.56466508      15.48241686
O       52.59312164      42.13502952      16.07756871
O       46.62757656      42.15690322      18.96845471
O       48.92122512      42.51209756      20.48851246
O       40.95410775      41.73273554      19.11887562
O       52.02653961      42.41519460      19.16478091
O       43.80390426      42.97021587      19.50253930
O       41.01170925      45.23279712      19.58451224
O       43.21180029      44.81854954      21.29635712
O       51.24772144      50.09935284       9.77876306
O       52.65896778      49.63170082      17.83805583
O       52.44429817      47.24648265      16.40652519
O       53.47523465      49.57040671      15.38031842
O       50.81673833      49.44797148      16.05193900
O       42.40179838      48.84323481      19.92024648
O       49.21967741      47.43333810      17.42159710
O       44.06436380      46.76431325      19.55084147
O       44.49338542      50.63818860      20.02783564
O       46.04594925      49.34715274      17.75537594
O       45.88942727      47.18840707      16.14176716
O       42.36548549      47.43297564      16.76614341
O       44.60709999      49.56220269      15.55226496
O       52.58230250      44.29313364      17.64556190
O       46.95519115      49.82995211      21.18925248
O       46.46688294      47.26999880      19.06361931
O       53.98371665      44.48204997      15.45514119
O       50.49608531      47.05915710      13.45281760
O       44.46133046      44.52528027       4.14901945
O       52.58122277      47.24564999      10.62418040
O       42.39214074      42.48595602       5.55848477
O       45.78358634      42.23005168       4.96065675
O       45.78529554      44.56841986       6.41732247
O       47.85813426      42.46587327       7.85500329
O       49.17444864      44.77073954       7.04156569
O       49.17746008      42.47766741       5.55645535
O       50.49324542      42.46946057       7.85958585
O       52.56661318      42.23155406       4.97136030
O       42.39256126      44.77110747       7.05960135
O       52.56643684      44.57227289       6.42082485
O       43.71184639      47.57092925       7.85421770
O       42.39458246      49.88159039       7.05786652
O       42.39310386      47.59650027       5.55593163
O       45.78231122      47.33937972       4.95627058
O       45.78080550      49.67396642       6.41804258
O       47.85650645      47.57380114       7.86105881
O       53.91365246      50.07896348       9.80995722
O       49.17539819      49.88206053       7.06005960
O       41.07868860      47.56961084       7.85559247
O       49.17740582      47.59606080       5.56336193
O       43.71015075      42.46076315       7.85614893
O       53.88774316      49.63794011       4.14198194
O       43.70677305      41.82472758       2.33740152
O       41.07558219      41.82678185       2.33857989
O       42.39051293      44.73714564       1.52036334
O       47.10451284      44.52465684       4.14600805
O       47.85883964      41.82236671       2.33910361
O       49.17857242      44.73947585       1.52065793
O       51.24446582      44.52427869       4.15117980
O       50.49041032      41.82239737       2.33821983
O       41.07487681      42.45983311       7.85683631
O       53.88707847      44.52557666       4.15085247
O       44.46096420      49.63632532       4.14649904
O       43.70826521      46.93159255       2.33602675
O       41.07646392      46.93154145       2.33753245
O       47.10386172      49.63565078       4.14888852
O       49.17528967      49.84802716       1.52386573
O       47.86044032      46.93300294       2.34119850
O       51.24456078      49.63594717       4.14947770
O       50.49116997      46.93278831       2.34224594
O       42.38923782      49.85264670       1.51997055
O       50.49372020      47.57488448       7.86632876
O       49.17400099      46.88652133      32.69052862
O       50.49095348      41.90709118      13.49478893
O       44.44540506      50.07730780       9.82635625
O       42.41029082      47.00777414      11.21199225
O       42.40076813      49.84108762      12.72459797
O       52.58302692      42.12686824      10.68922006
O       52.56272000      44.91678662      12.06965157
O       51.24540181      44.96762205       9.79571855
O       52.56951611      47.33965567       4.95509221
O       53.91100727      44.96220533       9.81192118
O       42.39142179      46.88618406      32.68696077
O       45.77550155      47.24723413      10.62725726
O       47.10943696      50.08782442       9.80128309
O       45.79876566      50.02026870      12.08287554
O       49.18376784      44.72355274      12.68067083
O       49.17466568      41.90996430      11.18750827
O       43.73084356      47.04001799      13.51080852
O       49.17956267      49.83487372      12.65425563
O       45.77832309      42.13893833      10.63812448
O       52.57277173      49.67308748       6.41463839
O       43.73312430      41.94355537      13.47204262
O       41.09544072      41.92549999      13.52861983
O       47.86337596      41.91535584      13.50596083
O       42.38674184      41.90350511      11.20331811
O       44.45042414      44.96605835       9.80187227
O       49.17073180      46.99879056      11.15703423
O       47.11349292      44.97073922       9.79529302
O       47.86231562      47.02245503      13.46538509
O       45.79069444      44.90758842      12.06251587
O       42.40417297      44.73565349      12.72580907
O       41.08608711      47.05588349      13.50669792
Si      42.39052650      41.25281373       1.49794152
Si      45.78100897      50.72606756      10.54038497
Si      42.40367106      46.38031334      12.74004775
Si      52.57762802      50.71754389      10.52729193
Si      49.17436725      41.24731525       1.49941448
Si      49.17893868      46.36383833      12.67743030
Si      49.17573732      48.24120260       7.07956823
Si      45.73320824      43.72999445      16.19660674
Si      45.78155158      48.97899078       4.87332620
Si      45.94136392      48.81390336      16.12283891
Si      52.56860725      48.97910320       4.87002021
Si      42.39481306      48.24070181       7.07223613
Si      42.40757780      41.26160313      12.72381238
Si      52.56615197      43.87028617       4.87879254
Si      42.39186944      46.35780839       1.49862890
Si      49.17590010      43.13012690       7.06840641
Si      45.78209418      45.61402094      10.52310216
Si      52.62670640      43.76793465      16.02247260
Si      49.17153214      41.25869036      12.70364911
Si      42.39218144      43.13011668       7.07475654
Si      52.57540335      45.61252878      10.52385501
Si      49.17626636      46.35945385       1.50114931
Si      45.78369486      43.86946856       4.87440637
Si      52.33656450      48.86352644      16.30628266
Ca      40.72156081      48.53276532      11.49689671
Ca      44.08022440      45.98855237      17.23192942
Ca      42.46941493      48.62657203      14.71171697
Ca      52.57947287      48.54251542       8.31123012
Ca      50.85300483      46.05758914       5.82849591
Ca      49.14608143      48.63236413      14.56478634
Ca      49.17105737      51.10018930       9.02581530
Ca      47.49845624      46.05739495       5.82620462
Ca      45.77689876      48.54493761       8.32052618
Ca      54.25417000      46.00944293      17.22150241
Ca      42.39650870      51.09450685       9.03612606
Ca      40.71922762      46.05568817       5.83212922
Ca      52.57411467      43.43466931       8.31430699
Ca      50.85433421      40.94120914       5.83703911
Ca      49.17234605      45.96753869       9.01295139
Ca      47.49724895      40.94236402       5.83314393
Ca      40.71979735      43.44850750      11.50884411
Ca      44.07918867      43.43407654      11.49035020
Ca      44.32995113      50.93954551      17.49165963
Ca      40.78371674      51.08631176      16.93311578
Ca      47.48342614      48.52991388      11.44773236
Ca      45.80131449      45.98143395      14.00993573
Ca      50.85368308      48.52667406      11.41261029
Ca      52.57036982      46.08589850      13.95934166
Ca      42.44775996      43.54847023      14.65874790
Ca      44.08698859      48.54089040      11.51440865
Ca      47.57894547      40.92515057      17.17973366
Ca      52.57926104      40.98680947      13.88671585
Ca      50.86312438      43.43188941      11.47323105
Ca      49.17046299      43.58230332      14.68117655
Ca      47.43705240      45.91638843      17.33590033
Ca      47.48479621      43.42686105      11.46943407
Ca      45.77090510      40.93829884      14.01329254
Ca      51.02674752      41.15264424      17.51129988
Ca      50.86653397      45.83894284      17.33119135
Ca      45.77992377      43.43297275       8.31610728
Ca      42.40056466      45.98587378       9.03576600
Ca      44.06906913      46.05486034       5.83327486
Ca      40.71924119      40.94376419       5.83039440
Ca      49.17520828      43.50628246       3.35914932
Ca      52.56659962      40.97746029       2.69942396
Ca      52.56714222      46.08474429       2.70106059
Ca      45.78183644      40.97853342       2.70161705
Ca      49.17518115      48.61703112       3.36281537
Ca      42.39340229      48.61587623       3.35649798
Ca      45.78323365      46.08639997       2.70011135
Ca      42.39254769      43.50850025       3.36062228
Ca      44.06750914      40.94533811       5.83252201
H       65.92824593       2.65289955      18.38441646
H       65.95781171       6.33732925      19.84843599
H       63.42856465       6.79001153      20.34195408
H       54.39522572       7.76725443      20.19350335
H       66.47721746       8.31050193      18.70091104
H       59.81790371       7.62215881      18.41572424
H       66.68521007       8.45615782      20.86168147
H       58.91283485       9.40376541      20.38148876
H       60.66198115       6.51700575      19.79485712
H       62.70250780       6.90627367      18.90115617
H       61.19023712       8.31657663      20.84776277
H       62.86091165       8.78747650      19.39792509
H       55.96039364       7.43790923      17.22800585
H       60.50297064       8.81145390      22.15315001
H       63.26793418       7.34765736      17.09008806
H       57.33335740       9.12334398      20.27048253
H       59.94046354       2.19919013      18.60792328
H       55.25227604       3.92607761      18.89566163
H       67.16821689       1.23259289      19.34949816
H       66.24110674       4.82995987      19.69896797
H       62.73385263       0.15737207      19.67255658
H       62.65980589       2.37802670      19.80257367
H       62.66979613       1.96226818      21.38439224
H       65.10289355       1.79156754      19.96415633
H       60.76451659       1.39896855      19.75994277
H       55.12253657       4.43959749      20.39579661
H       55.92854785       3.73594690      17.75268296
H       58.02197367       2.58364189      18.93226241
H       57.46254758       5.22878723      20.27487585
H       55.90390787       8.39166841      18.99835158
H       58.66039715       6.10634337      19.52621041
H       56.54709652       7.14293878      19.77869186
H       55.21090673       1.52360955      19.28219490
H       57.01638872       3.14566806      20.71403286
H       57.04593636       3.72092300      22.20444970
H       57.82695351       1.29239601      19.88003260
C       62.77373149       3.01601647      17.34874855
O       62.83594201       9.69021530      18.94977690
O       57.96596349       3.53154393      15.50856032
O       62.73875243       0.89594624      32.69065955
O       55.95548141       0.89570096      32.68836827
O       62.68480424       7.24221530      19.89915900
O       59.34255184       1.19951643      16.23116850
O       66.11992926       9.09459431      12.05348167
O       65.53522421       5.49936087      19.52704453
O       66.93672744       7.76594166      20.22066106
O       62.78648847       1.71483661      17.07208947
O       62.75511996       3.38209596      18.59376536
O       59.28859053       3.42263792      17.78291411
O       60.60079969       3.53703382      15.46432798
O       64.90379737       3.61932802      15.34090473
O       60.82385530       8.68374508      15.48241686
O       66.15819864       1.25410952      16.07756871
O       60.19265356       1.27598322      18.96845471
O       62.48630212       1.63117756      20.48851246
O       54.51918475       0.85181554      19.11887562
O       65.59161661       1.53427460      19.16478091
O       57.36898126       2.08929587      19.50253930
O       54.57678625       4.35187712      19.58451224
O       56.77687729       3.93762954      21.29635712
O       64.81279844       9.21843284       9.77876306
O       66.22404478       8.75078082      17.83805583
O       66.00937517       6.36556265      16.40652519
O       67.04031165       8.68948671      15.38031842
O       64.38181533       8.56705148      16.05193900
O       55.96687538       7.96231481      19.92024648
O       62.78475441       6.55241810      17.42159710
O       57.62944080       5.88339325      19.55084147
O       58.05846242       9.75726860      20.02783564
O       59.61102625       8.46623274      17.75537594
O       59.45450427       6.30748707      16.14176716
O       55.93056249       6.55205564      16.76614341
O       58.17217699       8.68128269      15.55226496
O       66.14737950       3.41221364      17.64556190
O       60.52026815       8.94903211      21.18925248
O       60.03195994       6.38907880      19.06361931
O       67.54879365       3.60112997      15.45514119
O       64.06116231       6.17823710      13.45281760
O       58.02640746       3.64436027       4.14901945
O       66.14629977       6.36472999      10.62418040
O       55.95721774       1.60503602       5.55848477
O       59.34866334       1.34913168       4.96065675
O       59.35037254       3.68749986       6.41732247
O       61.42321126       1.58495327       7.85500329
O       62.73952564       3.88981954       7.04156569
O       62.74253708       1.59674741       5.55645535
O       64.05832242       1.58854057       7.85958585
O       66.13169018       1.35063406       4.97136030
O       55.95763826       3.89018747       7.05960135
O       66.13151384       3.69135289       6.42082485
O       57.27692339       6.69000925       7.85421770
O       55.95965946       9.00067039       7.05786652
O       55.95818086       6.71558027       5.55593163
O       59.34738822       6.45845972       4.95627058
O       59.34588250       8.79304642       6.41804258
O       61.42158345       6.69288114       7.86105881
O       67.47872946       9.19804348       9.80995722
O       62.74047519       9.00114053       7.06005960
O       54.64376560       6.68869084       7.85559247
O       62.74248282       6.71514080       5.56336193
O       57.27522775       1.57984315       7.85614893
O       67.45282016       8.75702011       4.14198194
O       57.27185005       0.94380758       2.33740152
O       54.64065919       0.94586185       2.33857989
O       55.95558993       3.85622564       1.52036334
O       60.66958984       3.64373684       4.14600805
O       61.42391664       0.94144671       2.33910361
O       62.74364942       3.85855585       1.52065793
O       64.80954282       3.64335869       4.15117980
O       64.05548732       0.94147737       2.33821983
O       54.63995381       1.57891311       7.85683631
O       67.45215547       3.64465666       4.15085247
O       58.02604120       8.75540532       4.14649904
O       57.27334221       6.05067255       2.33602675
O       54.64154092       6.05062145       2.33753245
O       60.66893872       8.75473078       4.14888852
O       62.74036667       8.96710716       1.52386573
O       61.42551732       6.05208294       2.34119850
O       64.80963778       8.75502717       4.14947770
O       64.05624697       6.05186831       2.34224594
O       55.95431482       8.97172670       1.51997055
O       64.05879720       6.69396448       7.86632876
O       62.73907799       6.00560133      32.69052862
O       64.05603048       1.02617118      13.49478893
O       58.01048206       9.19638780       9.82635625
O       55.97536782       6.12685414      11.21199225
O       55.96584513       8.96016762      12.72459797
O       66.14810392       1.24594824      10.68922006
O       66.12779700       4.03586662      12.06965157
O       64.81047881       4.08670205       9.79571855
O       66.13459311       6.45873567       4.95509221
O       67.47608427       4.08128533       9.81192118
O       55.95649879       6.00526406      32.68696077
O       59.34057855       6.36631413      10.62725726
O       60.67451396       9.20690442       9.80128309
O       59.36384266       9.13934870      12.08287554
O       62.74884484       3.84263274      12.68067083
O       62.73974268       1.02904430      11.18750827
O       57.29592056       6.15909799      13.51080852
O       62.74463967       8.95395372      12.65425563
O       59.34340009       1.25801833      10.63812448
O       66.13784873       8.79216748       6.41463839
O       57.29820130       1.06263537      13.47204262
O       54.66051772       1.04457999      13.52861983
O       61.42845296       1.03443584      13.50596083
O       55.95181884       1.02258511      11.20331811
O       58.01550114       4.08513835       9.80187227
O       62.73580880       6.11787056      11.15703423
O       60.67856992       4.08981922       9.79529302
O       61.42739262       6.14153503      13.46538509
O       59.35577144       4.02666842      12.06251587
O       55.96924997       3.85473349      12.72580907
O       54.65116411       6.17496349      13.50669792
Si      55.95560350       0.37189373       1.49794152
Si      59.34608597       9.84514756      10.54038497
Si      55.96874806       5.49939334      12.74004775
Si      66.14270502       9.83662389      10.52729193
Si      62.73944425       0.36639525       1.49941448
Si      62.74401568       5.48291833      12.67743030
Si      62.74081432       7.36028260       7.07956823
Si      59.29828524       2.84907445      16.19660674
Si      59.34662858       8.09807078       4.87332620
Si      59.50644092       7.93298336      16.12283891
Si      66.13368425       8.09818320       4.87002021
Si      55.95989006       7.35978181       7.07223613
Si      55.97265480       0.38068313      12.72381238
Si      66.13122897       2.98936617       4.87879254
Si      55.95694644       5.47688839       1.49862890
Si      62.74097710       2.24920690       7.06840641
Si      59.34717118       4.73310094      10.52310216
Si      66.19178340       2.88701465      16.02247260
Si      62.73660914       0.37777036      12.70364911
Si      55.95725844       2.24919668       7.07475654
Si      66.14048035       4.73160878      10.52385501
Si      62.74134336       5.47853385       1.50114931
Si      59.34877186       2.98854856       4.87440637
Si      65.90164150       7.98260644      16.30628266
Ca      54.28663781       7.65184532      11.49689671
Ca      57.64530140       5.10763237      17.23192942
Ca      56.03449193       7.74565203      14.71171697
Ca      66.14454987       7.66159542       8.31123012
Ca      64.41808183       5.17666914       5.82849591
Ca      62.71115843       7.75144413      14.56478634
Ca      62.73613437      10.21926930       9.02581530
Ca      61.06353324       5.17647495       5.82620462
Ca      59.34197576       7.66401761       8.32052618
Ca      67.81924700       5.12852293      17.22150241
Ca      55.96158570      10.21358685       9.03612606
Ca      54.28430462       5.17476817       5.83212922
Ca      66.13919167       2.55374931       8.31430699
Ca      64.41941121       0.06028914       5.83703911
Ca      62.73742305       5.08661869       9.01295139
Ca      61.06232595       0.06144402       5.83314393
Ca      54.28487435       2.56758750      11.50884411
Ca      57.64426567       2.55315654      11.49035020
Ca      57.89502813      10.05862551      17.49165963
Ca      54.34879374      10.20539176      16.93311578
Ca      61.04850314       7.64899388      11.44773236
Ca      59.36639149       5.10051395      14.00993573
Ca      64.41876008       7.64575406      11.41261029
Ca      66.13544682       5.20497850      13.95934166
Ca      56.01283696       2.66755023      14.65874790
Ca      57.65206559       7.65997040      11.51440865
Ca      61.14402247       0.04423057      17.17973366
Ca      66.14433804       0.10588947      13.88671585
Ca      64.42820138       2.55096941      11.47323105
Ca      62.73553999       2.70138332      14.68117655
Ca      61.00212940       5.03546843      17.33590033
Ca      61.04987321       2.54594105      11.46943407
Ca      59.33598210       0.05737884      14.01329254
Ca      64.59182452       0.27172424      17.51129988
Ca      64.43161097       4.95802284      17.33119135
Ca      59.34500077       2.55205275       8.31610728
Ca      55.96564166       5.10495378       9.03576600
Ca      57.63414613       5.17394034       5.83327486
Ca      54.28431819       0.06284419       5.83039440
Ca      62.74028528       2.62536246       3.35914932
Ca      66.13167662       0.09654029       2.69942396
Ca      66.13221922       5.20382429       2.70106059
Ca      59.34691344       0.09761342       2.70161705
Ca      62.74025815       7.73611112       3.36281537
Ca      55.95847929       7.73495623       3.35649798
Ca      59.34831065       5.20547997       2.70011135
Ca      55.95762469       2.62758025       3.36062228
Ca      57.63258614       0.06441811       5.83252201
H       65.92824593      12.87312955      18.38441646
H       65.95781171      16.55755925      19.84843599
H       63.42856465      17.01024153      20.34195408
H       54.39522572      17.98748443      20.19350335
H       66.47721746      18.53073193      18.70091104
H       59.81790371      17.84238881      18.41572424
H       66.68521007      18.67638782      20.86168147
H       58.91283485      19.62399541      20.38148876
H       60.66198115      16.73723575      19.79485712
H       62.70250780      17.12650367      18.90115617
H       61.19023712      18.53680663      20.84776277
H       62.86091165      19.00770650      19.39792509
H       55.96039364      17.65813923      17.22800585
H       60.50297064      19.03168390      22.15315001
H       63.26793418      17.56788736      17.09008806
H       57.33335740      19.34357398      20.27048253
H       59.94046354      12.41942013      18.60792328
H       55.25227604      14.14630761      18.89566163
H       67.16821689      11.45282289      19.34949816
H       66.24110674      15.05018987      19.69896797
H       62.73385263      10.37760207      19.67255658
H       62.65980589      12.59825670      19.80257367
H       62.66979613      12.18249818      21.38439224
H       65.10289355      12.01179754      19.96415633
H       60.76451659      11.61919855      19.75994277
H       55.12253657      14.65982749      20.39579661
H       55.92854785      13.95617690      17.75268296
H       58.02197367      12.80387189      18.93226241
H       57.46254758      15.44901723      20.27487585
H       55.90390787      18.61189841      18.99835158
H       58.66039715      16.32657337      19.52621041
H       56.54709652      17.36316878      19.77869186
H       55.21090673      11.74383955      19.28219490
H       57.01638872      13.36589806      20.71403286
H       57.04593636      13.94115300      22.20444970
H       57.82695351      11.51262601      19.88003260
C       62.77373149      13.23624647      17.34874855
O       62.83594201      19.91044530      18.94977690
O       57.96596349      13.75177393      15.50856032
O       62.73875243      11.11617624      32.69065955
O       55.95548141      11.11593096      32.68836827
O       62.68480424      17.46244530      19.89915900
O       59.34255184      11.41974643      16.23116850
O       66.11992926      19.31482431      12.05348167
O       65.53522421      15.71959087      19.52704453
O       66.93672744      17.98617166      20.22066106
O       62.78648847      11.93506661      17.07208947
O       62.75511996      13.60232596      18.59376536
O       59.28859053      13.64286792      17.78291411
O       60.60079969      13.75726382      15.46432798
O       64.90379737      13.83955802      15.34090473
O       60.82385530      18.90397508      15.48241686
O       66.15819864      11.47433952      16.07756871
O       60.19265356      11.49621322      18.96845471
O       62.48630212      11.85140756      20.48851246
O       54.51918475      11.07204554      19.11887562
O       65.59161661      11.75450460      19.16478091
O       57.36898126      12.30952587      19.50253930
O       54.57678625      14.57210712      19.58451224
O       56.77687729      14.15785954      21.29635712
O       64.81279844      19.43866284       9.77876306
O       66.22404478      18.97101082      17.83805583
O       66.00937517      16.58579265      16.40652519
O       67.04031165      18.90971671      15.38031842
O       64.38181533      18.78728148      16.05193900
O       55.96687538      18.18254481      19.92024648
O       62.78475441      16.77264810      17.42159710
O       57.62944080      16.10362325      19.55084147
O       58.05846242      19.97749860      20.02783564
O       59.61102625      18.68646274      17.75537594
O       59.45450427      16.52771707      16.14176716
O       55.93056249      16.77228564      16.76614341
O       58.17217699      18.90151269      15.55226496
O       66.14737950      13.63244364      17.64556190
O       60.52026815      19.16926211      21.18925248
O       60.03195994      16.60930880      19.06361931
O       67.54879365      13.82135997      15.45514119
O       64.06116231      16.39846710      13.45281760
O       58.02640746      13.86459027       4.14901945
O       66.14629977      16.58495999      10.62418040
O       55.95721774      11.82526602       5.55848477
O       59.34866334      11.56936168       4.96065675
O       59.35037254      13.90772986       6.41732247
O       61.42321126      11.80518327       7.85500329
O       62.73952564      14.11004954       7.04156569
O       62.74253708      11.81697741       5.55645535
O       64.05832242      11.80877057       7.85958585
O       66.13169018      11.57086406       4.97136030
O       55.95763826      14.11041747       7.05960135
O       66.13151384      13.91158289       6.42082485
O       57.27692339      16.91023925       7.85421770
O       55.95965946      19.22090039       7.05786652
O       55.95818086      16.93581027       5.55593163
O       59.34738822      16.67868972       4.95627058
O       59.34588250      19.01327642       6.41804258
O       61.42158345      16.91311114       7.86105881
O       67.47872946      19.41827348       9.80995722
O       62.74047519      19.22137053       7.06005960
O       54.64376560      16.90892084       7.85559247
O       62.74248282      16.93537080       5.56336193
O       57.27522775      11.80007315       7.85614893
O       67.45282016      18.97725011       4.14198194
O       57.27185005      11.16403758       2.33740152
O       54.64065919      11.16609185       2.33857989
O       55.95558993      14.07645564       1.52036334
O       60.66958984      13.86396684       4.14600805
O       61.42391664      11.16167671       2.33910361
O       62.74364942      14.07878585       1.52065793
O       64.80954282      13.86358869       4.15117980
O       64.05548732      11.16170737       2.33821983
O       54.63995381      11.79914311       7.85683631
O       67.45215547      13.86488666       4.15085247
O       58.02604120      18.97563532       4.14649904
O       57.27334221      16.27090255       2.33602675
O       54.64154092      16.27085145       2.33753245
O       60.66893872      18.97496078       4.14888852
O       62.74036667      19.18733716       1.52386573
O       61.42551732      16.27231294       2.34119850
O       64.80963778      18.97525717       4.14947770
O       64.05624697      16.27209831       2.34224594
O       55.95431482      19.19195670       1.51997055
O       64.05879720      16.91419448       7.86632876
O       62.73907799      16.22583133      32.69052862
O       64.05603048      11.24640118      13.49478893
O       58.01048206      19.41661780       9.82635625
O       55.97536782      16.34708414      11.21199225
O       55.96584513      19.18039762      12.72459797
O       66.14810392      11.46617824      10.68922006
O       66.12779700      14.25609662      12.06965157
O       64.81047881      14.30693205       9.79571855
O       66.13459311      16.67896567       4.95509221
O       67.47608427      14.30151533       9.81192118
O       55.95649879      16.22549406      32.68696077
O       59.34057855      16.58654413      10.62725726
O       60.67451396      19.42713442       9.80128309
O       59.36384266      19.35957870      12.08287554
O       62.74884484      14.06286274      12.68067083
O       62.73974268      11.24927430      11.18750827
O       57.29592056      16.37932799      13.51080852
O       62.74463967      19.17418372      12.65425563
O       59.34340009      11.47824833      10.63812448
O       66.13784873      19.01239748       6.41463839
O       57.29820130      11.28286537      13.47204262
O       54.66051772      11.26480999      13.52861983
O       61.42845296      11.25466584      13.50596083
O       55.95181884      11.24281511      11.20331811
O       58.01550114      14.30536835       9.80187227
O       62.73580880      16.33810056      11.15703423
O       60.67856992      14.31004922       9.79529302
O       61.42739262      16.36176503      13.46538509
O       59.35577144      14.24689842      12.06251587
O       55.96924997      14.07496349      12.72580907
O       54.65116411      16.39519349      13.50669792
Si      55.95560350      10.59212373       1.49794152
Si      59.34608597      20.06537756      10.54038497
Si      55.96874806      15.71962334      12.74004775
Si      66.14270502      20.05685389      10.52729193
Si      62.73944425      10.58662525       1.49941448
Si      62.74401568      15.70314833      12.67743030
Si      62.74081432      17.58051260       7.07956823
Si      59.29828524      13.06930445      16.19660674
Si      59.34662858      18.31830078       4.87332620
Si      59.50644092      18.15321336      16.12283891
Si      66.13368425      18.31841320       4.87002021
Si      55.95989006      17.58001181       7.07223613
Si      55.97265480      10.60091313      12.72381238
Si      66.13122897      13.20959617       4.87879254
Si      55.95694644      15.69711839       1.49862890
Si      62.74097710      12.46943690       7.06840641
Si      59.34717118      14.95333094      10.52310216
Si      66.19178340      13.10724465      16.02247260
Si      62.73660914      10.59800036      12.70364911
Si      55.95725844      12.46942668       7.07475654
Si      66.14048035      14.95183878      10.52385501
Si      62.74134336      15.69876385       1.50114931
Si      59.34877186      13.20877856       4.87440637
Si      65.90164150      18.20283644      16.30628266
Ca      54.28663781      17.87207532      11.49689671
Ca      57.64530140      15.32786237      17.23192942
Ca      56.03449193      17.96588203      14.71171697
Ca      66.14454987      17.88182542       8.31123012
Ca      64.41808183      15.39689914       5.82849591
Ca      62.71115843      17.97167413      14.56478634
Ca      62.73613437      20.43949930       9.02581530
Ca      61.06353324      15.39670495       5.82620462
Ca      59.34197576      17.88424761       8.32052618
Ca      67.81924700      15.34875293      17.22150241
Ca      55.96158570      20.43381685       9.03612606
Ca      54.28430462      15.39499817       5.83212922
Ca      66.13919167      12.77397931       8.31430699
Ca      64.41941121      10.28051914       5.83703911
Ca      62.73742305      15.30684869       9.01295139
Ca      61.06232595      10.28167402       5.83314393
Ca      54.28487435      12.78781750      11.50884411
Ca      57.64426567      12.77338654      11.49035020
Ca      57.89502813      20.27885551      17.49165963
Ca      54.34879374      20.42562176      16.93311578
Ca      61.04850314      17.86922388      11.44773236
Ca      59.36639149      15.32074395      14.00993573
Ca      64.41876008      17.86598406      11.41261029
Ca      66.13544682      15.42520850      13.95934166
Ca      56.01283696      12.88778023      14.65874790
Ca      57.65206559      17.88020040      11.51440865
Ca      61.14402247      10.26446057      17.17973366
Ca      66.14433804      10.32611947      13.88671585
Ca      64.42820138      12.77119941      11.47323105
Ca      62.73553999      12.92161332      14.68117655
Ca      61.00212940      15.25569843      17.33590033
Ca      61.04987321      12.76617105      11.46943407
Ca      59.33598210      10.27760884      14.01329254
Ca      64.59182452      10.49195424      17.51129988
Ca      64.43161097      15.17825284      17.33119135
Ca      59.34500077      12.77228275       8.31610728
Ca      55.96564166      15.32518378       9.03576600
Ca      57.63414613      15.39417034       5.83327486
Ca      54.28431819      10.28307419       5.83039440
Ca      62.74028528      12.84559246       3.35914932
Ca      66.13167662      10.31677029       2.69942396
Ca      66.13221922      15.42405429       2.70106059
Ca      59.34691344      10.31784342       2.70161705
Ca      62.74025815      17.95634112       3.36281537
Ca      55.95847929      17.95518623       3.35649798
Ca      59.34831065      15.42570997       2.70011135
Ca      55.95762469      12.84781025       3.36062228
Ca      57.63258614      10.28464811       5.83252201
H       65.92824593      23.09335955      18.38441646
H       65.95781171      26.77778925      19.84843599
H       63.42856465      27.23047153      20.34195408
H       54.39522572      28.20771443      20.19350335
H       66.47721746      28.75096193      18.70091104
H       59.81790371      28.06261881      18.41572424
H       66.68521007      28.89661782      20.86168147
H       58.91283485      29.84422541      20.38148876
H       60.66198115      26.95746575      19.79485712
H       62.70250780      27.34673367      18.90115617
H       61.19023712      28.75703663      20.84776277
H       62.86091165      29.22793650      19.39792509
H       55.96039364      27.87836923      17.22800585
H       60.50297064      29.25191390      22.15315001
H       63.26793418      27.78811736      17.09008806
H       57.33335740      29.56380398      20.27048253
H       59.94046354      22.63965013      18.60792328
H       55.25227604      24.36653761      18.89566163
H       67.16821689      21.67305289      19.34949816
H       66.24110674      25.27041987      19.69896797
H       62.73385263      20.59783207      19.67255658
H       62.65980589      22.81848670      19.80257367
H       62.66979613      22.40272818      21.38439224
H       65.10289355      22.23202754      19.96415633
H       60.76451659      21.83942855      19.75994277
H       55.12253657      24.88005749      20.39579661
H       55.92854785      24.17640690      17.75268296
H       58.02197367      23.02410189      18.93226241
H       57.46254758      25.66924723      20.27487585
H       55.90390787      28.83212841      18.99835158
H       58.66039715      26.54680337      19.52621041
H       56.54709652      27.58339878      19.77869186
H       55.21090673      21.96406955      19.28219490
H       57.01638872      23.58612806      20.71403286
H       57.04593636      24.16138300      22.20444970
H       57.82695351      21.73285601      19.88003260
C       62.77373149      23.45647647      17.34874855
O       62.83594201      30.13067530      18.94977690
O       57.96596349      23.97200393      15.50856032
O       62.73875243      21.33640624      32.69065955
O       55.95548141      21.33616096      32.68836827
O       62.68480424      27.68267530      19.89915900
O       59.34255184      21.63997643      16.23116850
O       66.11992926      29.53505431      12.05348167
O       65.53522421      25.93982087      19.52704453
O       66.93672744      28.20640166      20.22066106
O       62.78648847      22.15529661      17.07208947
O       62.75511996      23.82255596      18.59376536
O       59.28859053      23.86309792      17.78291411
O       60.60079969      23.97749382      15.46432798
O       64.90379737      24.05978802      15.34090473
O       60.82385530      29.12420508      15.48241686
O       66.15819864      21.69456952      16.07756871
O       60.19265356      21.71644322      18.96845471
O       62.48630212      22.07163756      20.48851246
O       54.51918475      21.29227554      19.11887562
O       65.59161661      21.97473460      19.16478091
O       57.36898126      22.52975587      19.50253930
O       54.57678625      24.79233712      19.58451224
O       56.77687729      24.37808954      21.29635712
O       64.81279844      29.65889284       9.77876306
O       66.22404478      29.19124082      17.83805583
O       66.00937517      26.80602265      16.40652519
O       67.04031165      29.12994671      15.38031842
O       64.38181533      29.00751148      16.05193900
O       55.96687538      28.40277481      19.92024648
O       62.78475441      26.99287810      17.42159710
O       57.62944080      26.32385325      19.55084147
O       58.05846242      30.19772860      20.02783564
O       59.61102625      28.90669274      17.75537594
O       59.45450427      26.74794707      16.14176716
O       55.93056249      26.99251564      16.76614341
O       58.17217699      29.12174269      15.55226496
O       66.14737950      23.85267364      17.64556190
O       60.52026815      29.38949211      21.18925248
O       60.03195994      26.82953880      19.06361931
O       67.54879365      24.04158997      15.45514119
O       64.06116231      26.61869710      13.45281760
O       58.02640746      24.08482027       4.14901945
O       66.14629977      26.80518999      10.62418040
O       55.95721774      22.04549602       5.55848477
O       59.34866334      21.78959168       4.96065675
O       59.35037254      24.12795986       6.41732247
O       61.42321126      22.02541327       7.85500329
O       62.73952564      24.33027954       7.04156569
O       62.74253708      22.03720741       5.55645535
O       64.05832242      22.02900057       7.85958585
O       66.13169018      21.79109406       4.97136030
O       55.95763826      24.33064747       7.05960135
O       66.13151384      24.13181289       6.42082485
O       57.27692339      27.13046925       7.85421770
O       55.95965946      29.44113039       7.05786652
O       55.95818086      27.15604027       5.55593163
O       59.34738822      26.89891972       4.95627058
O       59.34588250      29.23350642       6.41804258
O       61.42158345      27.13334114       7.86105881
O       67.47872946      29.63850348       9.80995722
O       62.74047519      29.44160053       7.06005960
O       54.64376560      27.12915084       7.85559247
O       62.74248282      27.15560080       5.56336193
O       57.27522775      22.02030315       7.85614893
O       67.45282016      29.19748011       4.14198194
O       57.27185005      21.38426758       2.33740152
O       54.64065919      21.38632185       2.33857989
O       55.95558993      24.29668564       1.52036334
O       60.66958984      24.08419684       4.14600805
O       61.42391664      21.38190671       2.33910361
O       62.74364942      24.29901585       1.52065793
O       64.80954282      24.08381869       4.15117980
O       64.05548732      21.38193737       2.33821983
O       54.63995381      22.01937311       7.85683631
O       67.45215547      24.08511666       4.15085247
O       58.02604120      29.19586532       4.14649904
O       57.27334221      26.49113255       2.33602675
O       54.64154092      26.49108145       2.33753245
O       60.66893872      29.19519078       4.14888852
O       62.74036667      29.40756716       1.52386573
O       61.42551732      26.49254294       2.34119850
O       64.80963778      29.19548717       4.14947770
O       64.05624697      26.49232831       2.34224594
O       55.95431482      29.41218670       1.51997055
O       64.05879720      27.13442448       7.86632876
O       62.73907799      26.44606133      32.69052862
O       64.05603048      21.46663118      13.49478893
O       58.01048206      29.63684780       9.82635625
O       55.97536782      26.56731414      11.21199225
O       55.96584513      29.40062762      12.72459797
O       66.14810392      21.68640824      10.68922006
O       66.12779700      24.47632662      12.06965157
O       64.81047881      24.52716205       9.79571855
O       66.13459311      26.89919567       4.95509221
O       67.47608427      24.52174533       9.81192118
O       55.95649879      26.44572406      32.68696077
O       59.34057855      26.80677413      10.62725726
O       60.67451396      29.64736442       9.80128309
O       59.36384266      29.57980870      12.08287554
O       62.74884484      24.28309274      12.68067083
O       62.73974268      21.46950430      11.18750827
O       57.29592056      26.59955799      13.51080852
O       62.74463967      29.39441372      12.65425563
O       59.34340009      21.69847833      10.63812448
O       66.13784873      29.23262748       6.41463839
O       57.29820130      21.50309537      13.47204262
O       54.66051772      21.48503999      13.52861983
O       61.42845296      21.47489584      13.50596083
O       55.95181884      21.46304511      11.20331811
O       58.01550114      24.52559835       9.80187227
O       62.73580880      26.55833056      11.15703423
O       60.67856992      24.53027922       9.79529302
O       61.42739262      26.58199503      13.46538509
O       59.35577144      24.46712842      12.06251587
O       55.96924997      24.29519349      12.72580907
O       54.65116411      26.61542349      13.50669792
Si      55.95560350      20.81235373       1.49794152
Si      59.34608597      30.28560756      10.54038497
Si      55.96874806      25.93985334      12.74004775
Si      66.14270502      30.27708389      10.52729193
Si      62.73944425      20.80685525       1.49941448
Si      62.74401568      25.92337833      12.67743030
Si      62.74081432      27.80074260       7.07956823
Si      59.29828524      23.28953445      16.19660674
Si      59.34662858      28.53853078       4.87332620
Si      59.50644092      28.37344336      16.12283891
Si      66.13368425      28.53864320       4.87002021
Si      55.95989006      27.80024181       7.07223613
Si      55.97265480      20.82114313      12.72381238
Si      66.13122897      23.42982617       4.87879254
Si      55.95694644      25.91734839       1.49862890
Si      62.74097710      22.68966690       7.06840641
Si      59.34717118      25.17356094      10.52310216
Si      66.19178340      23.32747465      16.02247260
Si      62.73660914      20.81823036      12.70364911
Si      55.95725844      22.68965668       7.07475654
Si      66.14048035      25.17206878      10.52385501
Si      62.74134336      25.91899385       1.50114931
Si      59.34877186      23.42900856       4.87440637
Si      65.90164150      28.42306644      16.30628266
Ca      54.28663781      28.09230532      11.49689671
Ca      57.64530140      25.54809237      17.23192942
Ca      56.03449193      28.18611203      14.71171697
Ca      66.14454987      28.10205542       8.31123012
Ca      64.41808183      25.61712914       5.82849591
Ca      62.71115843      28.19190413      14.56478634
Ca      62.73613437      30.65972930       9.02581530
Ca      61.06353324      25.61693495       5.82620462
Ca      59.34197576      28.10447761       8.32052618
Ca      67.81924700      25.56898293      17.22150241
Ca      55.96158570      30.65404685       9.03612606
Ca      54.28430462      25.61522817       5.83212922
Ca      66.13919167      22.99420931       8.31430699
Ca      64.41941121      20.50074914       5.83703911
Ca      62.73742305      25.52707869       9.01295139
Ca      61.06232595      20.50190402       5.83314393
Ca      54.28487435      23.00804750      11.50884411
Ca      57.64426567      22.99361654      11.49035020
Ca      57.89502813      30.49908551      17.49165963
Ca      54.34879374      30.64585176      16.93311578
Ca      61.04850314      28.08945388      11.44773236
Ca      59.36639149      25.54097395      14.00993573
Ca      64.41876008      28.08621406      11.41261029
Ca      66.13544682      25.64543850      13.95934166
Ca      56.01283696      23.10801023      14.65874790
Ca      57.65206559      28.10043040      11.51440865
Ca      61.14402247      20.48469057      17.17973366
Ca      66.14433804      20.54634947      13.88671585
Ca      64.42820138      22.99142941      11.47323105
Ca      62.73553999      23.14184332      14.68117655
Ca      61.00212940      25.47592843      17.33590033
Ca      61.04987321      22.98640105      11.46943407
Ca      59.33598210      20.49783884      14.01329254
Ca      64.59182452      20.71218424      17.51129988
Ca      64.43161097      25.39848284      17.33119135
Ca      59.34500077      22.99251275       8.31610728
Ca      55.96564166      25.54541378       9.03576600
Ca      57.63414613      25.61440034       5.83327486
Ca      54.28431819      20.50330419       5.83039440
Ca      62.74028528      23.06582246       3.35914932
Ca      66.13167662      20.53700029       2.69942396
Ca      66.13221922      25.64428429       2.70106059
Ca      59.34691344      20.53807342       2.70161705
Ca      62.74025815      28.17657112       3.36281537
Ca      55.95847929      28.17541623       3.35649798
Ca      59.34831065      25.64593997       2.70011135
Ca      55.95762469      23.06804025       3.36062228
Ca      57.63258614      20.50487811       5.83252201
H       65.92824593      33.31358955      18.38441646
H       65.95781171      36.99801925      19.84843599
H       63.42856465      37.45070153      20.34195408
H       54.39522572      38.42794443      20.19350335
H       66.47721746      38.97119193      18.70091104
H       59.81790371      38.28284881      18.41572424
H       66.68521007      39.11684782      20.86168147
H       58.91283485      40.06445541      20.38148876
H       60.66198115      37.17769575      19.79485712
H       62.70250780      37.56696367      18.90115617
H       61.19023712      38.97726663      20.84776277
H       62.86091165      39.44816650      19.39792509
H       55.96039364      38.09859923      17.22800585
H       60.50297064      39.47214390      22.15315001
H       63.26793418      38.00834736      17.09008806
H       57.33335740      39.78403398      20.27048253
H       59.94046354      32.85988013      18.60792328
H       55.25227604      34.58676761      18.89566163
H       67.16821689      31.89328289      19.34949816
H       66.24110674      35.49064987      19.69896797
H       62.73385263      30.81806207      19.67255658
H       62.65980589      33.03871670      19.80257367
H       62.66979613      32.62295818      21.38439224
H       65.10289355      32.45225754      19.96415633
H       60.76451659      32.05965855      19.75994277
H       55.12253657      35.10028749      20.39579661
H       55.92854785      34.39663690      17.75268296
H       58.02197367      33.24433189      18.93226241
H       57.46254758      35.88947723      20.27487585
H       55.90390787      39.05235841      18.99835158
H       58.66039715      36.76703337      19.52621041
H       56.54709652      37.80362878      19.77869186
H       55.21090673      32.18429955      19.28219490
H       57.01638872      33.80635806      20.71403286
H       57.04593636      34.38161300      22.20444970
H       57.82695351      31.95308601      19.88003260
C       62.77373149      33.67670647      17.34874855
O       62.83594201      40.35090530      18.94977690
O       57.96596349      34.19223393      15.50856032
O       62.73875243      31.55663624      32.69065955
O       55.95548141      31.55639096      32.68836827
O       62.68480424      37.90290530      19.89915900
O       59.34255184      31.86020643      16.23116850
O       66.11992926      39.75528431      12.05348167
O       65.53522421      36.16005087      19.52704453
O       66.93672744      38.42663166      20.22066106
O       62.78648847      32.37552661      17.07208947
O       62.75511996      34.04278596      18.59376536
O       59.28859053      34.08332792      17.78291411
O       60.60079969      34.19772382      15.46432798
O       64.90379737      34.28001802      15.34090473
O       60.82385530      39.34443508      15.48241686
O       66.15819864      31.91479952      16.07756871
O       60.19265356      31.93667322      18.96845471
O       62.48630212      32.29186756      20.48851246
O       54.51918475      31.51250554      19.11887562
O       65.59161661      32.19496460      19.16478091
O       57.36898126      32.74998587      19.50253930
O       54.57678625      35.01256712      19.58451224
O       56.77687729      34.59831954      21.29635712
O       64.81279844      39.87912284       9.77876306
O       66.22404478      39.41147082      17.83805583
O       66.00937517      37.02625265      16.40652519
O       67.04031165      39.35017671      15.38031842
O       64.38181533      39.22774148      16.05193900
O       55.96687538      38.62300481      19.92024648
O       62.78475441      37.21310810      17.42159710
O       57.62944080      36.54408325      19.55084147
O       58.05846242      40.41795860      20.02783564
O       59.61102625      39.12692274      17.75537594
O       59.45450427      36.96817707      16.14176716
O       55.93056249      37.21274564      16.76614341
O       58.17217699      39.34197269      15.55226496
O       66.14737950      34.07290364      17.64556190
O       60.52026815      39.60972211      21.18925248
O       60.03195994      37.04976880      19.06361931
O       67.54879365      34.26181997      15.45514119
O       64.06116231      36.83892710      13.45281760
O       58.02640746      34.30505027       4.14901945
O       66.14629977      37.02541999      10.62418040
O       55.95721774      32.26572602       5.55848477
O       59.34866334      32.00982168       4.96065675
O       59.35037254      34.34818986       6.41732247
O       61.42321126      32.24564327       7.85500329
O       62.73952564      34.55050954       7.04156569
O       62.74253708      32.25743741       5.55645535
O       64.05832242      32.24923057       7.85958585
O       66.13169018      32.01132406       4.97136030
O       55.95763826      34.55087747       7.05960135
O       66.13151384      34.35204289       6.42082485
O       57.27692339      37.35069925       7.85421770
O       55.95965946      39.66136039       7.05786652
O       55.95818086      37.37627027       5.55593163
O       59.34738822      37.11914972       4.95627058
O       59.34588250      39.45373642       6.41804258
O       61.42158345      37.35357114       7.86105881
O       67.47872946      39.85873348       9.80995722
O       62.74047519      39.66183053       7.06005960
O       54.64376560      37.34938084       7.85559247
O       62.74248282      37.37583080       5.56336193
O       57.27522775      32.24053315       7.85614893
O       67.45282016      39.41771011       4.14198194
O       57.27185005      31.60449758       2.33740152
O       54.64065919      31.60655185       2.33857989
O       55.95558993      34.51691564       1.52036334
O       60.66958984      34.30442684       4.14600805
O       61.42391664      31.60213671       2.33910361
O       62.74364942      34.51924585       1.52065793
O       64.80954282      34.30404869       4.15117980
O       64.05548732      31.60216737       2.33821983
O       54.63995381      32.23960311       7.85683631
O       67.45215547      34.30534666       4.15085247
O       58.02604120      39.41609532       4.14649904
O       57.27334221      36.71136255       2.33602675
O       54.64154092      36.71131145       2.33753245
O       60.66893872      39.41542078       4.14888852
O       62.74036667      39.62779716       1.52386573
O       61.42551732      36.71277294       2.34119850
O       64.80963778      39.41571717       4.14947770
O       64.05624697      36.71255831       2.34224594
O       55.95431482      39.63241670       1.51997055
O       64.05879720      37.35465448       7.86632876
O       62.73907799      36.66629133      32.69052862
O       64.05603048      31.68686118      13.49478893
O       58.01048206      39.85707780       9.82635625
O       55.97536782      36.78754414      11.21199225
O       55.96584513      39.62085762      12.72459797
O       66.14810392      31.90663824      10.68922006
O       66.12779700      34.69655662      12.06965157
O       64.81047881      34.74739205       9.79571855
O       66.13459311      37.11942567       4.95509221
O       67.47608427      34.74197533       9.81192118
O       55.95649879      36.66595406      32.68696077
O       59.34057855      37.02700413      10.62725726
O       60.67451396      39.86759442       9.80128309
O       59.36384266      39.80003870      12.08287554
O       62.74884484      34.50332274      12.68067083
O       62.73974268      31.68973430      11.18750827
O       57.29592056      36.81978799      13.51080852
O       62.74463967      39.61464372      12.65425563
O       59.34340009      31.91870833      10.63812448
O       66.13784873      39.45285748       6.41463839
O       57.29820130      31.72332537      13.47204262
O       54.66051772      31.70526999      13.52861983
O       61.42845296      31.69512584      13.50596083
O       55.95181884      31.68327511      11.20331811
O       58.01550114      34.74582835       9.80187227
O       62.73580880      36.77856056      11.15703423
O       60.67856992      34.75050922       9.79529302
O       61.42739262      36.80222503      13.46538509
O       59.35577144      34.68735842      12.06251587
O       55.96924997      34.51542349      12.72580907
O       54.65116411      36.83565349      13.50669792
Si      55.95560350      31.03258373       1.49794152
Si      59.34608597      40.50583756      10.54038497
Si      55.96874806      36.16008334      12.74004775
Si      66.14270502      40.49731389      10.52729193
Si      62.73944425      31.02708525       1.49941448
Si      62.74401568      36.14360833      12.67743030
Si      62.74081432      38.02097260       7.07956823
Si      59.29828524      33.50976445      16.19660674
Si      59.34662858      38.75876078       4.87332620
Si      59.50644092      38.59367336      16.12283891
Si      66.13368425      38.75887320       4.87002021
Si      55.95989006      38.02047181       7.07223613
Si      55.97265480      31.04137313      12.72381238
Si      66.13122897      33.65005617       4.87879254
Si      55.95694644      36.13757839       1.49862890
Si      62.74097710      32.90989690       7.06840641
Si      59.34717118      35.39379094      10.52310216
Si      66.19178340      33.54770465      16.02247260
Si      62.73660914      31.03846036      12.70364911
Si      55.95725844      32.90988668       7.07475654
Si      66.14048035      35.39229878      10.52385501
Si      62.74134336      36.13922385       1.50114931
Si      59.34877186      33.64923856       4.87440637
Si      65.90164150      38.64329644      16.30628266
Ca      54.28663781      38.31253532      11.49689671
Ca      57.64530140      35.76832237      17.23192942
Ca      56.03449193      38.40634203      14.71171697
Ca      66.14454987      38.32228542       8.31123012
Ca      64.41808183      35.83735914       5.82849591
Ca      62.71115843      38.41213413      14.56478634
Ca      62.73613437      40.87995930       9.02581530
Ca      61.06353324      35.83716495       5.82620462
Ca      59.34197576      38.32470761       8.32052618
Ca      67.81924700      35.78921293      17.22150241
Ca      55.96158570      40.87427685       9.03612606
Ca      54.28430462      35.83545817       5.83212922
Ca      66.13919167      33.21443931       8.31430699
Ca      64.41941121      30.72097914       5.83703911
Ca      62.73742305      35.74730869       9.01295139
Ca      61.06232595      30.72213402       5.83314393
Ca      54.28487435      33.22827750      11.50884411
Ca      57.64426567      33.21384654      11.49035020
Ca      57.89502813      40.71931551      17.49165963
Ca      54.34879374      40.86608176      16.93311578
Ca      61.04850314      38.30968388      11.44773236
Ca      59.36639149      35.76120395      14.00993573
Ca      64.41876008      38.30644406      11.41261029
Ca      66.13544682      35.86566850      13.95934166
Ca      56.01283696      33.32824023      14.65874790
Ca      57.65206559      38.32066040      11.51440865
Ca      61.14402247      30.70492057      17.17973366
Ca      66.14433804      30.76657947      13.88671585
Ca      64.42820138      33.21165941      11.47323105
Ca      62.73553999      33.36207332      14.68117655
Ca      61.00212940      35.69615843      17.33590033
Ca      61.04987321      33.20663105      11.46943407
Ca      59.33598210      30.71806884      14.01329254
Ca      64.59182452      30.93241424      17.51129988
Ca      64.43161097      35.61871284      17.33119135
Ca      59.34500077      33.21274275       8.31610728
Ca      55.96564166      35.76564378       9.03576600
Ca      57.63414613      35.83463034       5.83327486
Ca      54.28431819      30.72353419       5.83039440
Ca      62.74028528      33.28605246       3.35914932
Ca      66.13167662      30.75723029       2.69942396
Ca      66.13221922      35.86451429       2.70106059
Ca      59.34691344      30.75830342       2.70161705
Ca      62.74025815      38.39680112       3.36281537
Ca      55.95847929      38.39564623       3.35649798
Ca      59.34831065      35.86616997       2.70011135
Ca      55.95762469      33.28827025       3.36062228
Ca      57.63258614      30.72510811       5.83252201
H       65.92824593      43.53381955      18.38441646
H       65.95781171      47.21824925      19.84843599
H       63.42856465      47.67093153      20.34195408
H       54.39522572      48.64817443      20.19350335
H       66.47721746      49.19142193      18.70091104
H       59.81790371      48.50307881      18.41572424
H       66.68521007      49.33707782      20.86168147
H       58.91283485      50.28468541      20.38148876
H       60.66198115      47.39792575      19.79485712
H       62.70250780      47.78719367      18.90115617
H       61.19023712      49.19749663      20.84776277
H       62.86091165      49.66839650      19.39792509
H       55.96039364      48.31882923      17.22800585
H       60.50297064      49.69237390      22.15315001
H       63.26793418      48.22857736      17.09008806
H       57.33335740      50.00426398      20.27048253
H       59.94046354      43.08011013      18.60792328
H       55.25227604      44.80699761      18.89566163
H       67.16821689      42.11351289      19.34949816
H       66.24110674      45.71087987      19.69896797
H       62.73385263      41.03829207      19.67255658
H       62.65980589      43.25894670      19.80257367
H       62.66979613      42.84318818      21.38439224
H       65.10289355      42.67248754      19.96415633
H       60.76451659      42.27988855      19.75994277
H       55.12253657      45.32051749      20.39579661
H       55.92854785      44.61686690      17.75268296
H       58.02197367      43.46456189      18.93226241
H       57.46254758      46.10970723      20.27487585
H       55.90390787      49.27258841      18.99835158
H       58.66039715      46.98726337      19.52621041
H       56.54709652      48.02385878      19.77869186
H       55.21090673      42.40452955      19.28219490
H       57.01638872      44.02658806      20.71403286
H       57.04593636      44.60184300      22.20444970
H       57.82695351      42.17331601      19.88003260
C       62.77373149      43.89693647      17.34874855
O       62.83594201      50.57113530      18.94977690
O       57.96596349      44.41246393      15.50856032
O       62.73875243      41.77686624      32.69065955
O       55.95548141      41.77662096      32.68836827
O       62.68480424      48.12313530      19.89915900
O       59.34255184      42.08043643      16.23116850
O       66.11992926      49.97551431      12.05348167
O       65.53522421      46.38028087      19.52704453
O       66.93672744      48.64686166      20.22066106
O       62.78648847      42.59575661      17.07208947
O       62.75511996      44.26301596      18.59376536
O       59.28859053      44.30355792      17.78291411
O       60.60079969      44.41795382      15.46432798
O       64.90379737      44.50024802      15.34090473
O       60.82385530      49.56466508      15.48241686
O       66.15819864      42.13502952      16.07756871
O       60.19265356      42.15690322      18.96845471
O       62.48630212      42.51209756      20.48851246
O       54.51918475      41.73273554      19.11887562
O       65.59161661      42.41519460      19.16478091
O       57.36898126      42.97021587      19.50253930
O       54.57678625      45.23279712      19.58451224
O       56.77687729      44.81854954      21.29635712
O       64.81279844      50.09935284       9.77876306
O       66.22404478      49.63170082      17.83805583
O       66.00937517      47.24648265      16.40652519
O       67.04031165      49.57040671      15.38031842
O       64.38181533      49.44797148      16.05193900
O       55.96687538      48.84323481      19.92024648
O       62.78475441      47.43333810      17.42159710
O       57.62944080      46.76431325      19.55084147
O       58.05846242      50.63818860      20.02783564
O       59.61102625      49.34715274      17.75537594
O       59.45450427      47.18840707      16.14176716
O       55.93056249      47.43297564      16.76614341
O       58.17217699      49.56220269      15.55226496
O       66.14737950      44.29313364      17.64556190
O       60.52026815      49.82995211      21.18925248
O       60.03195994      47.26999880      19.06361931
O       67.54879365      44.48204997      15.45514119
O       64.06116231      47.05915710      13.45281760
O       58.02640746      44.52528027       4.14901945
O       66.14629977      47.24564999      10.62418040
O       55.95721774      42.48595602       5.55848477
O       59.34866334      42.23005168       4.96065675
O       59.35037254      44.56841986       6.41732247
O       61.42321126      42.46587327       7.85500329
O       62.73952564      44.77073954       7.04156569
O       62.74253708      42.47766741       5.55645535
O       64.05832242      42.46946057       7.85958585
O       66.13169018      42.23155406       4.97136030
O       55.95763826      44.77110747       7.05960135
O       66.13151384      44.57227289       6.42082485
O       57.27692339      47.57092925       7.85421770
O       55.95965946      49.88159039       7.05786652
O       55.95818086      47.59650027       5.55593163
O       59.34738822      47.33937972       4.95627058
O       59.34588250      49.67396642       6.41804258
O       61.42158345      47.57380114       7.86105881
O       67.47872946      50.07896348       9.80995722
O       62.74047519      49.88206053       7.06005960
O       54.64376560      47.56961084       7.85559247
O       62.74248282      47.59606080       5.56336193
O       57.27522775      42.46076315       7.85614893
O       67.45282016      49.63794011       4.14198194
O       57.27185005      41.82472758       2.33740152
O       54.64065919      41.82678185       2.33857989
O       55.95558993      44.73714564       1.52036334
O       60.66958984      44.52465684       4.14600805
O       61.42391664      41.82236671       2.33910361
O       62.74364942      44.73947585       1.52065793
O       64.80954282      44.52427869       4.15117980
O       64.05548732      41.82239737       2.33821983
O       54.63995381      42.45983311       7.85683631
O       67.45215547      44.52557666       4.15085247
O       58.02604120      49.63632532       4.14649904
O       57.27334221      46.93159255       2.33602675
O       54.64154092      46.93154145       2.33753245
O       60.66893872      49.63565078       4.14888852
O       62.74036667      49.84802716       1.52386573
O       61.42551732      46.93300294       2.34119850
O       64.80963778      49.63594717       4.14947770
O       64.05624697      46.93278831       2.34224594
O       55.95431482      49.85264670       1.51997055
O       64.05879720      47.57488448       7.86632876
O       62.73907799      46.88652133      32.69052862
O       64.05603048      41.90709118      13.49478893
O       58.01048206      50.07730780       9.82635625
O       55.97536782      47.00777414      11.21199225
O       55.96584513      49.84108762      12.72459797
O       66.14810392      42.12686824      10.68922006
O       66.12779700      44.91678662      12.06965157
O       64.81047881      44.96762205       9.79571855
O       66.13459311      47.33965567       4.95509221
O       67.47608427      44.96220533       9.81192118
O       55.95649879      46.88618406      32.68696077
O       59.34057855      47.24723413      10.62725726
O       60.67451396      50.08782442       9.80128309
O       59.36384266      50.02026870      12.08287554
O       62.74884484      44.72355274      12.68067083
O       62.73974268      41.90996430      11.18750827
O       57.29592056      47.04001799      13.51080852
O       62.74463967      49.83487372      12.65425563
O       59.34340009      42.13893833      10.63812448
O       66.13784873      49.67308748       6.41463839
O       57.29820130      41.94355537      13.47204262
O       54.66051772      41.92549999      13.52861983
O       61.42845296      41.91535584      13.50596083
O       55.95181884      41.90350511      11.20331811
O       58.01550114      44.96605835       9.80187227
O       62.73580880      46.99879056      11.15703423
O       60.67856992      44.97073922       9.79529302
O       61.42739262      47.02245503      13.46538509
O       59.35577144      44.90758842      12.06251587
O       55.96924997      44.73565349      12.72580907
O       54.65116411      47.05588349      13.50669792
Si      55.95560350      41.25281373       1.49794152
Si      59.34608597      50.72606756      10.54038497
Si      55.96874806      46.38031334      12.74004775
Si      66.14270502      50.71754389      10.52729193
Si      62.73944425      41.24731525       1.49941448
Si      62.74401568      46.36383833      12.67743030
Si      62.74081432      48.24120260       7.07956823
Si      59.29828524      43.72999445      16.19660674
Si      59.34662858      48.97899078       4.87332620
Si      59.50644092      48.81390336      16.12283891
Si      66.13368425      48.97910320       4.87002021
Si      55.95989006      48.24070181       7.07223613
Si      55.97265480      41.26160313      12.72381238
Si      66.13122897      43.87028617       4.87879254
Si      55.95694644      46.35780839       1.49862890
Si      62.74097710      43.13012690       7.06840641
Si      59.34717118      45.61402094      10.52310216
Si      66.19178340      43.76793465      16.02247260
Si      62.73660914      41.25869036      12.70364911
Si      55.95725844      43.13011668       7.07475654
Si      66.14048035      45.61252878      10.52385501
Si      62.74134336      46.35945385       1.50114931
Si      59.34877186      43.86946856       4.87440637
Si      65.90164150      48.86352644      16.30628266
Ca      54.28663781      48.53276532      11.49689671
Ca      57.64530140      45.98855237      17.23192942
Ca      56.03449193      48.62657203      14.71171697
Ca      66.14454987      48.54251542       8.31123012
Ca      64.41808183      46.05758914       5.82849591
Ca      62.71115843      48.63236413      14.56478634
Ca      62.73613437      51.10018930       9.02581530
Ca      61.06353324      46.05739495       5.82620462
Ca      59.34197576      48.54493761       8.32052618
Ca      67.81924700      46.00944293      17.22150241
Ca      55.96158570      51.09450685       9.03612606
Ca      54.28430462      46.05568817       5.83212922
Ca      66.13919167      43.43466931       8.31430699
Ca      64.41941121      40.94120914       5.83703911
Ca      62.73742305      45.96753869       9.01295139
Ca      61.06232595      40.94236402       5.83314393
Ca      54.28487435      43.44850750      11.50884411
Ca      57.64426567      43.43407654      11.49035020
Ca      57.89502813      50.93954551      17.49165963
Ca      54.34879374      51.08631176      16.93311578
Ca      61.04850314      48.52991388      11.44773236
Ca      59.36639149      45.98143395      14.00993573
Ca      64.41876008      48.52667406      11.41261029
Ca      66.13544682      46.08589850      13.95934166
Ca      56.01283696      43.54847023      14.65874790
Ca      57.65206559      48.54089040      11.51440865
Ca      61.14402247      40.92515057      17.17973366
Ca      66.14433804      40.98680947      13.88671585
Ca      64.42820138      43.43188941      11.47323105
Ca      62.73553999      43.58230332      14.68117655
Ca      61.00212940      45.91638843      17.33590033
Ca      61.04987321      43.42686105      11.46943407
Ca      59.33598210      40.93829884      14.01329254
Ca      64.59182452      41.15264424      17.51129988
Ca      64.43161097      45.83894284      17.33119135
Ca      59.34500077      43.43297275       8.31610728
Ca      55.96564166      45.98587378       9.03576600
Ca      57.63414613      46.05486034       5.83327486
Ca      54.28431819      40.94376419       5.83039440
Ca      62.74028528      43.50628246       3.35914932
Ca      66.13167662      40.97746029       2.69942396
Ca      66.13221922      46.08474429       2.70106059
Ca      59.34691344      40.97853342       2.70161705
Ca      62.74025815      48.61703112       3.36281537
Ca      55.95847929      48.61587623       3.35649798
Ca      59.34831065      46.08639997       2.70011135
Ca      55.95762469      43.50850025       3.36062228
Ca      57.63258614      40.94533811       5.83252201
O        3.39126925       2.55505750      25.20000000
H        4.34846925       2.55505750      25.20000000
H        3.15128204       3.48168471      25.20000000
O        3.39126925       7.66517250      25.20000000
H        2.43406925       7.66517250      25.20000000
H        3.63125646       6.73854529      25.20000000
O        3.39126925      12.77528750      25.20000000
H        4.34846925      12.77528750      25.20000000
H        3.15128204      13.70191471      25.20000000
O        3.39126925      17.88540250      25.20000000
H        2.43406925      17.88540250      25.20000000
H        3.63125646      16.95877529      25.20000000
O        3.39126925      22.99551750      25.20000000
H        4.34846925      22.99551750      25.20000000
H        3.15128204      23.92214471      25.20000000
O        3.39126925      28.10563250      25.20000000
H        2.43406925      28.10563250      25.20000000
H        3.63125646      27.17900529      25.20000000
O        3.39126925      33.21574750      25.20000000
H        4.34846925      33.21574750      25.20000000
H        3.15128204      34.14237471      25.20000000
O        3.39126925      38.32586250      25.20000000
H        2.43406925      38.32586250      25.20000000
H        3.63125646      37.39923529      25.20000000
O        3.39126925      43.43597750      25.20000000
H        4.34846925      43.43597750      25.20000000
H        3.15128204      44.36260471      25.20000000
O        3.39126925      48.54609250      25.20000000
H        2.43406925      48.54609250      25.20000000
H        3.63125646      47.61946529      25.20000000
O       10.17380775       2.55505750      25.20000000
H       10.17380775       3.51225750      25.20000000
H        9.24718054       2.31507029      25.20000000
O       10.17380775       7.66517250      25.20000000
H       10.17380775       6.70797250      25.20000000
H       11.10043496       7.90515971      25.20000000
O       10.17380775      12.77528750      25.20000000
H       10.17380775      13.73248750      25.20000000
H        9.24718054      12.53530029      25.20000000
O       10.17380775      17.88540250      25.20000000
H       10.17380775      16.92820250      25.20000000
H       11.10043496      18.12538971      25.20000000
O       10.17380775      22.99551750      25.20000000
H       10.17380775      23.95271750      25.20000000
H        9.24718054      22.75553029      25.20000000
O       10.17380775      28.10563250      25.20000000
H       10.17380775      27.14843250      25.20000000
H       11.10043496      28.34561971      25.20000000
O       10.17380775      33.21574750      25.20000000
H       10.17380775      34.17294750      25.20000000
H        9.24718054      32.97576029      25.20000000
O       10.17380775      38.32586250      25.20000000
H       10.17380775      37.36866250      25.20000000
H       11.10043496      38.56584971      25.20000000
O       10.17380775      43.43597750      25.20000000
H       10.17380775      44.39317750      25.20000000
H        9.24718054      43.19599029      25.20000000
O       10.17380775      48.54609250      25.20000000
H       10.17380775      47.58889250      25.20000000
H       11.10043496      48.78607971      25.20000000
O       16.95634625       2.55505750      25.20000000
H       15.99914625       2.55505750      25.20000000
H       17.19633346       1.62843029      25.20000000
O       16.95634625       7.66517250      25.20000000
H       17.91354625       7.66517250      25.20000000
H       16.71635904       8.59179971      25.20000000
O       16.95634625      12.77528750      25.20000000
H       15.99914625      12.77528750      25.20000000
H       17.19633346      11.84866029      25.20000000
O       16.95634625      17.88540250      25.20000000
H       17.91354625      17.88540250      25.20000000
H       16.71635904      18.81202971      25.20000000
O       16.95634625      22.99551750      25.20000000
H       15.99914625      22.99551750      25.20000000
H       17.19633346      22.06889029      25.20000000
O       16.95634625      28.10563250      25.20000000
H       17.91354625      28.10563250      25.20000000
H       16.71635904      29.03225971      25.20000000
O       16.95634625      33.21574750      25.20000000
H       15.99914625      33.21574750      25.20000000
H       17.19633346      32.28912029      25.20000000
O       16.95634625      38.32586250      25.20000000
H       17.91354625      38.32586250      25.20000000
H       16.71635904      39.25248971      25.20000000
O       16.95634625      43.43597750      25.20000000
H       15.99914625      43.43597750      25.20000000
H       17.19633346      42.50935029      25.20000000
O       16.95634625      48.54609250      25.20000000
H       17.91354625      48.54609250      25.20000000
H       16.71635904      49.47271971      25.20000000
O       23.73888475       2.55505750      25.20000000
H       23.73888475       1.59785750      25.20000000
H       24.66551196       2.79504471      25.20000000
O       23.73888475       7.66517250      25.20000000
H       23.73888475       8.62237250      25.20000000
H       22.81225754       7.42518529      25.20000000
O       23.73888475      12.77528750      25.20000000
H       23.73888475      11.81808750      25.20000000
H       24.66551196      13.01527471      25.20000000
O       23.73888475      17.88540250      25.20000000
H       23.73888475      18.84260250      25.20000000
H       22.81225754      17.64541529      25.20000000
O       23.73888475      22.99551750      25.20000000
H       23.73888475      22.03831750      25.20000000
H       24.66551196      23.23550471      25.20000000
O       23.73888475      28.10563250      25.20000000
H       23.73888475      29.06283250      25.20000000
H       22.81225754      27.86564529      25.20000000
O       23.73888475      33.21574750      25.20000000
H       23.73888475      32.25854750      25.20000000
H       24.66551196      33.45573471      25.20000000
O       23.73888475      38.32586250      25.20000000
H       23.73888475      39.28306250      25.20000000
H       22.81225754      38.08587529      25.20000000
O       23.73888475      43.43597750      25.20000000
H       23.73888475      42.47877750      25.20000000
H       24.66551196      43.67596471      25.20000000
O       23.73888475      48.54609250      25.20000000
H       23.73888475      49.50329250      25.20000000
H       22.81225754      48.30610529      25.20000000
O       30.52142325       2.55505750      25.20000000
H       31.47862325       2.55505750      25.20000000
H       30.28143604       3.48168471      25.20000000
O       30.52142325       7.66517250      25.20000000
H       29.56422325       7.66517250      25.20000000
H       30.76141046       6.73854529      25.20000000
O       30.52142325      12.77528750      25.20000000
H       31.47862325      12.77528750      25.20000000
H       30.28143604      13.70191471      25.20000000
O       30.52142325      17.88540250      25.20000000
H       29.56422325      17.88540250      25.20000000
H       30.76141046      16.95877529      25.20000000
O       30.52142325      22.99551750      25.20000000
H       31.47862325      22.99551750      25.20000000
H       30.28143604      23.92214471      25.20000000
O       30.52142325      28.10563250      25.20000000
H       29.56422325      28.10563250      25.20000000
H       30.76141046      27.17900529      25.20000000
O       30.52142325      33.21574750      25.20000000
H       31.47862325      33.21574750      25.20000000
H       30.28143604      34.14237471      25.20000000
O       30.52142325      38.32586250      25.20000000
H       29.56422325      38.32586250      25.20000000
H       30.76141046      37.39923529      25.20000000
O       30.52142325      43.43597750      25.20000000
H       31.47862325      43.43597750      25.20000000
H       30.28143604      44.36260471      25.20000000
O       30.52142325      48.54609250      25.20000000
H       29.56422325      48.54609250      25.20000000
H       30.76141046      47.61946529      25.20000000
O       37.30396175       2.55505750      25.20000000
H       37.30396175       3.51225750      25.20000000
H       36.37733454       2.31507029      25.20000000
O       37.30396175       7.66517250      25.20000000
H       37.30396175       6.70797250      25.20000000
H       38.23058896       7.90515971      25.20000000
O       37.30396175      12.77528750      25.20000000
H       37.30396175      13.73248750      25.20000000
H       36.37733454      12.53530029      25.20000000
O       37.30396175      17.88540250      25.20000000
H       37.30396175      16.92820250      25.20000000
H       38.23058896      18.12538971      25.20000000
O       37.30396175      22.99551750      25.20000000
H       37.30396175      23.95271750      25.20000000
H       36.37733454      22.75553029      25.20000000
O       37.30396175      28.10563250      25.20000000
H       37.30396175      27.14843250      25.20000000
H       38.23058896      28.34561971      25.20000000
O       37.30396175      33.21574750      25.20000000
H       37.30396175      34.17294750      25.20000000
H       36.37733454      32.97576029      25.20000000
O       37.30396175      38.32586250      25.20000000
H       37.30396175      37.36866250      25.20000000
H       38.23058896      38.56584971      25.20000000
O       37.30396175      43.43597750      25.20000000
H       37.30396175      44.39317750      25.20000000
H       36.37733454      43.19599029      25.20000000
O       37.30396175      48.54609250      25.20000000
H       37.30396175      47.58889250      25.20000000
H       38.23058896      48.78607971      25.20000000
O       44.08650025       2.55505750      25.20000000
H       43.12930025       2.55505750      25.20000000
H       44.32648746       1.62843029      25.20000000
O       44.08650025       7.66517250      25.20000000
H       45.04370025       7.66517250      25.20000000
H       43.84651304       8.59179971      25.20000000
O       44.08650025      12.77528750      25.20000000
H       43.12930025      12.77528750      25.20000000
H       44.32648746      11.84866029      25.20000000
O       44.08650025      17.88540250      25.20000000
H       45.04370025      17.88540250      25.20000000
H       43.84651304      18.81202971      25.20000000
O       44.08650025      22.99551750      25.20000000
H       43.12930025      22.99551750      25.20000000
H       44.32648746      22.06889029      25.20000000
O       44.08650025      28.10563250      25.20000000
H       45.04370025      28.10563250      25.20000000
H       43.84651304      29.03225971      25.20000000
O       44.08650025      33.21574750      25.20000000
H       43.12930025      33.21574750      25.20000000
H       44.32648746      32.28912029      25.20000000
O       44.08650025      38.32586250      25.20000000
H       45.04370025      38.32586250      25.20000000
H       43.84651304      39.25248971      25.20000000
O       44.08650025      43.43597750      25.20000000
H       43.12930025      43.43597750      25.20000000
H       44.32648746      42.50935029      25.20000000
O       44.08650025      48.54609250      25.20000000
H       45.04370025      48.54609250      25.20000000
H       43.84651304      49.47271971      25.20000000
O       50.86903875       2.55505750      25.20000000
H       50.86903875       1.59785750      25.20000000
H       51.79566596       2.79504471      25.20000000
O       50.86903875       7.66517250      25.20000000
H       50.86903875       8.62237250      25.20000000
H       49.94241154       7.42518529      25.20000000
O       50.86903875      12.77528750      25.20000000
H       50.86903875      11.81808750      25.20000000
H       51.79566596      13.01527471      25.20000000
O       50.86903875      17.88540250      25.20000000
H       50.86903875      18.84260250      25.20000000
H       49.94241154      17.64541529      25.20000000
O       50.86903875      22.99551750      25.20000000
H       50.86903875      22.03831750      25.20000000
H       51.79566596      23.23550471      25.20000000
O       50.86903875      28.10563250      25.20000000
H       50.86903875      29.06283250      25.20000000
H       49.94241154      27.86564529      25.20000000
O       50.86903875      33.21574750      25.20000000
H       50.86903875      32.25854750      25.20000000
H       51.79566596      33.45573471      25.20000000
O       50.86903875      38.32586250      25.20000000
H       50.86903875      39.28306250      25.20000000
H       49.94241154      38.08587529      25.20000000
O       50.86903875      43.43597750      25.20000000
H       50.86903875      42.47877750      25.20000000
H       51.79566596      43.67596471      25.20000000
O       50.86903875      48.54609250      25.20000000
H       50.86903875      49.50329250      25.20000000
H       49.94241154      48.30610529      25.20000000
O       57.65157725       2.55505750      25.20000000
H       58.60877725       2.55505750      25.20000000
H       57.41159004       3.48168471      25.20000000
O       57.65157725       7.66517250      25.20000000
H       56.69437725       7.66517250      25.20000000
H       57.89156446       6.73854529      25.20000000
O       57.65157725      12.77528750      25.20000000
H       58.60877725      12.77528750      25.20000000
H       57.41159004      13.70191471      25.20000000
O       57.65157725      17.88540250      25.20000000
H       56.69437725      17.88540250      25.20000000
H       57.89156446      16.95877529      25.20000000
O       57.65157725      22.99551750      25.20000000
H       58.60877725      22.99551750      25.20000000
H       57.41159004      23.92214471      25.20000000
O       57.65157725      28.10563250      25.20000000
H       56.69437725      28.10563250      25.20000000
H       57.89156446      27.17900529      25.20000000
O       57.65157725      33.21574750      25.20000000
H       58.60877725      33.21574750      25.20000000
H       57.41159004      34.14237471      25.20000000
O       57.65157725      38.32586250      25.20000000
H       56.69437725      38.32586250      25.20000000
H       57.89156446      37.39923529      25.20000000
O       57.65157725      43.43597750      25.20000000
H       58.60877725      43.43597750      25.20000000
H       57.41159004      44.36260471      25.20000000
O       57.65157725      48.54609250      25.20000000
H       56.69437725      48.54609250      25.20000000
H       57.89156446      47.61946529      25.20000000
O       64.43411575       2.55505750      25.20000000
H       64.43411575       3.51225750      25.20000000
H       63.50748854       2.31507029      25.20000000
O       64.43411575       7.66517250      25.20000000
H       64.43411575       6.70797250      25.20000000
H       65.36074296       7.90515971      25.20000000
O       64.43411575      12.77528750      25.20000000
H       64.43411575      13.73248750      25.20000000
H       63.50748854      12.53530029      25.20000000
O       64.43411575      17.88540250      25.20000000
H       64.43411575      16.92820250      25.20000000
H       65.36074296      18.12538971      25.20000000
O       64.43411575      22.99551750      25.20000000
H       64.43411575      23.95271750      25.20000000
H       63.50748854      22.75553029      25.20000000
O       64.43411575      28.10563250      25.20000000
H       64.43411575      27.14843250      25.20000000
H       65.36074296      28.34561971      25.20000000
O       64.43411575      33.21574750      25.20000000
H       64.43411575      34.17294750      25.20000000
H       63.50748854      32.97576029      25.20000000
O       64.43411575      38.32586250      25.20000000
H       64.43411575      37.36866250      25.20000000
H       65.36074296      38.56584971      25.20000000
O       64.43411575      43.43597750      25.20000000
H       64.43411575      44.39317750      25.20000000
H       63.50748854      43.19599029      25.20000000
O       64.43411575      48.54609250      25.20000000
H       64.43411575      47.58889250      25.20000000
H       65.36074296      48.78607971      25.20000000
O        6.78253850       5.11011500      28.60000000
H        6.78253850       6.06731500      28.60000000
H        5.85591129       4.87012779      28.60000000
O        6.78253850      10.22023000      28.60000000
H        6.78253850       9.26303000      28.60000000
H        7.70916571      10.46021721      28.60000000
O        6.78253850      15.33034500      28.60000000
H        6.78253850      16.28754500      28.60000000
H        5.85591129      15.09035779      28.60000000
O        6.78253850      20.44046000      28.60000000
H        6.78253850      19.48326000      28.60000000
H        7.70916571      20.68044721      28.60000000
O        6.78253850      25.55057500      28.60000000
H        6.78253850      26.50777500      28.60000000
H        5.85591129      25.31058779      28.60000000
O        6.78253850      30.66069000      28.60000000
H        6.78253850      29.70349000      28.60000000
H        7.70916571      30.90067721      28.60000000
O        6.78253850      35.77080500      28.60000000
H        6.78253850      36.72800500      28.60000000
H        5.85591129      35.53081779      28.60000000
O        6.78253850      40.88092000      28.60000000
H        6.78253850      39.92372000      28.60000000
H        7.70916571      41.12090721      28.60000000
O        6.78253850      45.99103500      28.60000000
H        6.78253850      46.94823500      28.60000000
H        5.85591129      45.75104779      28.60000000
O        6.78253850       0.00000000      28.60000000
H        6.78253850      50.14395000      28.60000000
H        7.70916571       0.23998721      28.60000000
O       13.56507700       5.11011500      28.60000000
H       12.60787700       5.11011500      28.60000000
H       13.80506421       4.18348779      28.60000000
O       13.56507700      10.22023000      28.60000000
H       14.52227700      10.22023000      28.60000000
H       13.32508979      11.14685721      28.60000000
O       13.56507700      15.33034500      28.60000000
H       12.60787700      15.33034500      28.60000000
H       13.80506421      14.40371779      28.60000000
O       13.56507700      20.44046000      28.60000000
H       14.52227700      20.44046000      28.60000000
H       13.32508979      21.36708721      28.60000000
O       13.56507700      25.55057500      28.60000000
H       12.60787700      25.55057500      28.60000000
H       13.80506421      24.62394779      28.60000000
O       13.56507700      30.66069000      28.60000000
H       14.52227700      30.66069000      28.60000000
H       13.32508979      31.58731721      28.60000000
O       13.56507700      35.77080500      28.60000000
H       12.60787700      35.77080500      28.60000000
H       13.80506421      34.84417779      28.60000000
O       13.56507700      40.88092000      28.60000000
H       14.52227700      40.88092000      28.60000000
H       13.32508979      41.80754721      28.60000000
O       13.56507700      45.99103500      28.60000000
H       12.60787700      45.99103500      28.60000000
H       13.80506421      45.06440779      28.60000000
O       13.56507700       0.00000000      28.60000000
H       14.52227700       0.00000000      28.60000000
H       13.32508979       0.92662721      28.60000000
O       20.34761550       5.11011500      28.60000000
H       20.34761550       4.15291500      28.60000000
H       21.27424271       5.35010221      28.60000000
O       20.34761550      10.22023000      28.60000000
H       20.34761550      11.17743000      28.60000000
H       19.42098829       9.98024279      28.60000000
O       20.34761550      15.33034500      28.60000000
H       20.34761550      14.37314500      28.60000000
H       21.27424271      15.57033221      28.60000000
O       20.34761550      20.44046000      28.60000000
H       20.34761550      21.39766000      28.60000000
H       19.42098829      20.20047279      28.60000000
O       20.34761550      25.55057500      28.60000000
H       20.34761550      24.59337500      28.60000000
H       21.27424271      25.79056221      28.60000000
O       20.34761550      30.66069000      28.60000000
H       20.34761550      31.61789000      28.60000000
H       19.42098829      30.42070279      28.60000000
O       20.34761550      35.77080500      28.60000000
H       20.34761550      34.81360500      28.60000000
H       21.27424271      36.01079221      28.60000000
O       20.34761550      40.88092000      28.60000000
H       20.34761550      41.83812000      28.60000000
H       19.42098829      40.64093279      28.60000000
O       20.34761550      45.99103500      28.60000000
H       20.34761550      45.03383500      28.60000000
H       21.27424271      46.23102221      28.60000000
O       20.34761550       0.00000000      28.60000000
H       20.34761550       0.95720000      28.60000000
H       19.42098829      50.86116279      28.60000000
O       27.13015400       5.11011500      28.60000000
H       28.08735400       5.11011500      28.60000000
H       26.89016679       6.03674221      28.60000000
O       27.13015400      10.22023000      28.60000000
H       26.17295400      10.22023000      28.60000000
H       27.37014121       9.29360279      28.60000000
O       27.13015400      15.33034500      28.60000000
H       28.08735400      15.33034500      28.60000000
H       26.89016679      16.25697221      28.60000000
O       27.13015400      20.44046000      28.60000000
H       26.17295400      20.44046000      28.60000000
H       27.37014121      19.51383279      28.60000000
O       27.13015400      25.55057500      28.60000000
H       28.08735400      25.55057500      28.60000000
H       26.89016679      26.47720221      28.60000000
O       27.13015400      30.66069000      28.60000000
H       26.17295400      30.66069000      28.60000000
H       27.37014121      29.73406279      28.60000000
O       27.13015400      35.77080500      28.60000000
H       28.08735400      35.77080500      28.60000000
H       26.89016679      36.69743221      28.60000000
O       27.13015400      40.88092000      28.60000000
H       26.17295400      40.88092000      28.60000000
H       27.37014121      39.95429279      28.60000000
O       27.13015400      45.99103500      28.60000000
H       28.08735400      45.99103500      28.60000000
H       26.89016679      46.91766221      28.60000000
O       27.13015400       0.00000000      28.60000000
H       26.17295400       0.00000000      28.60000000
H       27.37014121      50.17452279      28.60000000
O       33.91269250       5.11011500      28.60000000
H       33.91269250       6.06731500      28.60000000
H       32.98606529       4.87012779      28.60000000
O       33.91269250      10.22023000      28.60000000
H       33.91269250       9.26303000      28.60000000
H       34.83931971      10.46021721      28.60000000
O       33.91269250      15.33034500      28.60000000
H       33.91269250      16.28754500      28.60000000
H       32.98606529      15.09035779      28.60000000
O       33.91269250      20.44046000      28.60000000
H       33.91269250      19.48326000      28.60000000
H       34.83931971      20.68044721      28.60000000
O       33.91269250      25.55057500      28.60000000
H       33.91269250      26.50777500      28.60000000
H       32.98606529      25.31058779      28.60000000
O       33.91269250      30.66069000      28.60000000
H       33.91269250      29.70349000      28.60000000
H       34.83931971      30.90067721      28.60000000
O       33.91269250      35.77080500      28.60000000
H       33.91269250      36.72800500      28.60000000
H       32.98606529      35.53081779      28.60000000
O       33.91269250      40.88092000      28.60000000
H       33.91269250      39.92372000      28.60000000
H       34.83931971      41.12090721      28.60000000
O       33.91269250      45.99103500      28.60000000
H       33.91269250      46.94823500      28.60000000
H       32.98606529      45.75104779      28.60000000
O       33.91269250       0.00000000      28.60000000
H       33.91269250      50.14395000      28.60000000
H       34.83931971       0.23998721      28.60000000
O       40.69523100       5.11011500      28.60000000
H       39.73803100       5.11011500      28.60000000
H       40.93521821       4.18348779      28.60000000
O       40.69523100      10.22023000      28.60000000
H       41.65243100      10.22023000      28.60000000
H       40.45524379      11.14685721      28.60000000
O       40.69523100      15.33034500      28.60000000
H       39.73803100      15.33034500      28.60000000
H       40.93521821      14.40371779      28.60000000
O       40.69523100      20.44046000      28.60000000
H       41.65243100      20.44046000      28.60000000
H       40.45524379      21.36708721      28.60000000
O       40.69523100      25.55057500      28.60000000
H       39.73803100      25.55057500      28.60000000
H       40.93521821      24.62394779      28.60000000
O       40.69523100      30.66069000      28.60000000
H       41.65243100      30.66069000      28.60000000
H       40.45524379      31.58731721      28.60000000
O       40.69523100      35.77080500      28.60000000
H       39.73803100      35.77080500      28.60000000
H       40.93521821      34.84417779      28.60000000
O       40.69523100      40.88092000      28.60000000
H       41.65243100      40.88092000      28.60000000
H       40.45524379      41.80754721      28.60000000
O       40.69523100      45.99103500      28.60000000
H       39.73803100      45.99103500      28.60000000
H       40.93521821      45.06440779      28.60000000
O       40.69523100       0.00000000      28.60000000
H       41.65243100       0.00000000      28.60000000
H       40.45524379       0.92662721      28.60000000
O       47.47776950       5.11011500      28.60000000
H       47.47776950       4.15291500      28.60000000
H       48.40439671       5.35010221      28.60000000
O       47.47776950      10.22023000      28.60000000
H       47.47776950      11.17743000      28.60000000
H       46.55114229       9.98024279      28.60000000
O       47.47776950      15.33034500      28.60000000
H       47.47776950      14.37314500      28.60000000
H       48.40439671      15.57033221      28.60000000
O       47.47776950      20.44046000      28.60000000
H       47.47776950      21.39766000      28.60000000
H       46.55114229      20.20047279      28.60000000
O       47.47776950      25.55057500      28.60000000
H       47.47776950      24.59337500      28.60000000
H       48.40439671      25.79056221      28.60000000
O       47.47776950      30.66069000      28.60000000
H       47.47776950      31.61789000      28.60000000
H       46.55114229      30.42070279      28.60000000
O       47.47776950      35.77080500      28.60000000
H       47.47776950      34.81360500      28.60000000
H       48.40439671      36.01079221      28.60000000
O       47.47776950      40.88092000      28.60000000
H       47.47776950      41.83812000      28.60000000
H       46.55114229      40.64093279      28.60000000
O       47.47776950      45.99103500      28.60000000
H       47.47776950      45.03383500      28.60000000
H       48.40439671      46.23102221      28.60000000
O       47.47776950       0.00000000      28.60000000
H       47.47776950       0.95720000      28.60000000
H       46.55114229      50.86116279      28.60000000
O       54.26030800       5.11011500      28.60000000
H       55.21750800       5.11011500      28.60000000
H       54.02032079       6.03674221      28.60000000
O       54.26030800      10.22023000      28.60000000
H       53.30310800      10.22023000      28.60000000
H       54.50029521       9.29360279      28.60000000
O       54.26030800      15.33034500      28.60000000
H       55.21750800      15.33034500      28.60000000
H       54.02032079      16.25697221      28.60000000
O       54.26030800      20.44046000      28.60000000
H       53.30310800      20.44046000      28.60000000
H       54.50029521      19.51383279      28.60000000
O       54.26030800      25.55057500      28.60000000
H       55.21750800      25.55057500      28.60000000
H       54.02032079      26.47720221      28.60000000
O       54.26030800      30.66069000      28.60000000
H       53.30310800      30.66069000      28.60000000
H       54.50029521      29.73406279      28.60000000
O       54.26030800      35.77080500      28.60000000
H       55.21750800      35.77080500      28.60000000
H       54.02032079      36.69743221      28.60000000
O       54.26030800      40.88092000      28.60000000
H       53.30310800      40.88092000      28.60000000
H       54.50029521      39.95429279      28.60000000
O       54.26030800      45.99103500      28.60000000
H       55.21750800      45.99103500      28.60000000
H       54.02032079      46.91766221      28.60000000
O       54.26030800       0.00000000      28.60000000
H       53.30310800       0.00000000      28.60000000
H       54.50029521      50.17452279      28.60000000
O       61.04284650       5.11011500      28.60000000
H       61.04284650       6.06731500      28.60000000
H       60.11621929       4.87012779      28.60000000
O       61.04284650      10.22023000      28.60000000
H       61.04284650       9.26303000      28.60000000
H       61.96947371      10.46021721      28.60000000
O       61.04284650      15.33034500      28.60000000
H       61.04284650      16.28754500      28.60000000
H       60.11621929      15.09035779      28.60000000
O       61.04284650      20.44046000      28.60000000
H       61.04284650      19.48326000      28.60000000
H       61.96947371      20.68044721      28.60000000
O       61.04284650      25.55057500      28.60000000
H       61.04284650      26.50777500      28.60000000
H       60.11621929      25.31058779      28.60000000
O       61.04284650      30.66069000      28.60000000
H       61.04284650      29.70349000      28.60000000
H       61.96947371      30.90067721      28.60000000
O       61.04284650      35.77080500      28.60000000
H       61.04284650      36.72800500      28.60000000
H       60.11621929      35.53081779      28.60000000
O       61.04284650      40.88092000      28.60000000
H       61.04284650      39.92372000      28.60000000
H       61.96947371      41.12090721      28.60000000
O       61.04284650      45.99103500      28.60000000
H       61.04284650      46.94823500      28.60000000
H       60.11621929      45.75104779      28.60000000
O       61.04284650       0.00000000      28.60000000
H       61.04284650      50.14395000      28.60000000
H       61.96947371       0.23998721      28.60000000
O        0.00000000       5.11011500      28.60000000
H       66.86818500       5.11011500      28.60000000
H        0.23998721       4.18348779      28.60000000
O        0.00000000      10.22023000      28.60000000
H        0.95720000      10.22023000      28.60000000
H       67.58539779      11.14685721      28.60000000
O        0.00000000      15.33034500      28.60000000
H       66.86818500      15.33034500      28.60000000
H        0.23998721      14.40371779      28.60000000
O        0.00000000      20.44046000      28.60000000
H        0.95720000      20.44046000      28.60000000
H       67.58539779      21.36708721      28.60000000
O        0.00000000      25.55057500      28.60000000
H       66.86818500      25.55057500      28.60000000
H        0.23998721      24.62394779      28.60000000
O        0.00000000      30.66069000      28.60000000
H        0.95720000      30.66069000      28.60000000
H       67.58539779      31.58731721      28.60000000
O        0.00000000      35.77080500      28.60000000
H       66.86818500      35.77080500      28.60000000
H        0.23998721      34.84417779      28.60000000
O        0.00000000      40.88092000      28.60000000
H        0.95720000      40.88092000      28.60000000
H       67.58539779      41.80754721      28.60000000
O        0.00000000      45.99103500      28.60000000
H       66.86818500      45.99103500      28.60000000
H        0.23998721      45.06440779      28.60000000
O        0.00000000       0.00000000      28.60000000
H        0.95720000       0.00000000      28.60000000
H       67.58539779       0.92662721      28.60000000
