6246
Lattice="68.8 0.0 0.0 0.0 68.8 0.0 0.0 0.0 21.3" Properties=species:S:1:pos:R:3 pbc="T T T"
Si       1.07500000       1.07500000       3.00000000
Si       1.07500000       3.22500000       3.00000000
Si       1.07500000       5.37500000       3.00000000
Si       1.07500000       7.52500000       3.00000000
Si       1.07500000       9.67500000       3.00000000
Si       1.07500000      11.82500000       3.00000000
Si       1.07500000      13.97500000       3.00000000
Si       1.07500000      16.12500000       3.00000000
Si       1.07500000      18.27500000       3.00000000
Si       1.07500000      20.42500000       3.00000000
Si       1.07500000      22.57500000       3.00000000
Si       1.07500000      24.72500000       3.00000000
Si       1.07500000      26.87500000       3.00000000
Si       1.07500000      29.02500000       3.00000000
Si       1.07500000      31.17500000       3.00000000
Si       1.07500000      33.32500000       3.00000000
Si       1.07500000      35.47500000       3.00000000
Si       1.07500000      37.62500000       3.00000000
Si       1.07500000      39.77500000       3.00000000
Si       1.07500000      41.92500000       3.00000000
Si       1.07500000      44.07500000       3.00000000
Si       1.07500000      46.22500000       3.00000000
Si       1.07500000      48.37500000       3.00000000
Si       1.07500000      50.52500000       3.00000000
Si       1.07500000      52.67500000       3.00000000
Si       1.07500000      54.82500000       3.00000000
Si       1.07500000      56.97500000       3.00000000
Si       1.07500000      59.12500000       3.00000000
Si       1.07500000      61.27500000       3.00000000
Si       1.07500000      63.42500000       3.00000000
Si       1.07500000      65.57500000       3.00000000
Si       1.07500000      67.72500000       3.00000000
Si       3.22500000       1.07500000       3.00000000
Si       3.22500000       3.22500000       3.00000000
Si       3.22500000       5.37500000       3.00000000
Si       3.22500000       7.52500000       3.00000000
Si       3.22500000       9.67500000       3.00000000
Si       3.22500000      11.82500000       3.00000000
Si       3.22500000      13.97500000       3.00000000
Si       3.22500000      16.12500000       3.00000000
Si       3.22500000      18.27500000       3.00000000
Si       3.22500000      20.42500000       3.00000000
Si       3.22500000      22.57500000       3.00000000
Si       3.22500000      24.72500000       3.00000000
Si       3.22500000      26.87500000       3.00000000
Si       3.22500000      29.02500000       3.00000000
Si       3.22500000      31.17500000       3.00000000
Si       3.22500000      33.32500000       3.00000000
Si       3.22500000      35.47500000       3.00000000
Si       3.22500000      37.62500000       3.00000000
Si       3.22500000      39.77500000       3.00000000
Si       3.22500000      41.92500000       3.00000000
Si       3.22500000      44.07500000       3.00000000
Si       3.22500000      46.22500000       3.00000000
Si       3.22500000      48.37500000       3.00000000
Si       3.22500000      50.52500000       3.00000000
Si       3.22500000      52.67500000       3.00000000
Si       3.22500000      54.82500000       3.00000000
Si       3.22500000      56.97500000       3.00000000
Si       3.22500000      59.12500000       3.00000000
Si       3.22500000      61.27500000       3.00000000
Si       3.22500000      63.42500000       3.00000000
Si       3.22500000      65.57500000       3.00000000
Si       3.22500000      67.72500000       3.00000000
Si       5.37500000       1.07500000       3.00000000
Si       5.37500000       3.22500000       3.00000000
Si       5.37500000       5.37500000       3.00000000
Si       5.37500000       7.52500000       3.00000000
Si       5.37500000       9.67500000       3.00000000
Si       5.37500000      11.82500000       3.00000000
Si       5.37500000      13.97500000       3.00000000
Si       5.37500000      16.12500000       3.00000000
Si       5.37500000      18.27500000       3.00000000
Si       5.37500000      20.42500000       3.00000000
Si       5.37500000      22.57500000       3.00000000
Si       5.37500000      24.72500000       3.00000000
Si       5.37500000      26.87500000       3.00000000
Si       5.37500000      29.02500000       3.00000000
Si       5.37500000      31.17500000       3.00000000
Si       5.37500000      33.32500000       3.00000000
Si       5.37500000      35.47500000       3.00000000
Si       5.37500000      37.62500000       3.00000000
Si       5.37500000      39.77500000       3.00000000
Si       5.37500000      41.92500000       3.00000000
Si       5.37500000      44.07500000       3.00000000
Si       5.37500000      46.22500000       3.00000000
Si       5.37500000      48.37500000       3.00000000
Si       5.37500000      50.52500000       3.00000000
Si       5.37500000      52.67500000       3.00000000
Si       5.37500000      54.82500000       3.00000000
Si       5.37500000      56.97500000       3.00000000
Si       5.37500000      59.12500000       3.00000000
Si       5.37500000      61.27500000       3.00000000
Si       5.37500000      63.42500000       3.00000000
Si       5.37500000      65.57500000       3.00000000
Si       5.37500000      67.72500000       3.00000000
Si       7.52500000       1.07500000       3.00000000
Si       7.52500000       3.22500000       3.00000000
Si       7.52500000       5.37500000       3.00000000
Si       7.52500000       7.52500000       3.00000000
Si       7.52500000       9.67500000       3.00000000
Si       7.52500000      11.82500000       3.00000000
Si       7.52500000      13.97500000       3.00000000
Si       7.52500000      16.12500000       3.00000000
Si       7.52500000      18.27500000       3.00000000
Si       7.52500000      20.42500000       3.00000000
Si       7.52500000      22.57500000       3.00000000
Si       7.52500000      24.72500000       3.00000000
Si       7.52500000      26.87500000       3.00000000
Si       7.52500000      29.02500000       3.00000000
Si       7.52500000      31.17500000       3.00000000
Si       7.52500000      33.32500000       3.00000000
Si       7.52500000      35.47500000       3.00000000
Si       7.52500000      37.62500000       3.00000000
Si       7.52500000      39.77500000       3.00000000
Si       7.52500000      41.92500000       3.00000000
Si       7.52500000      44.07500000       3.00000000
Si       7.52500000      46.22500000       3.00000000
Si       7.52500000      48.37500000       3.00000000
Si       7.52500000      50.52500000       3.00000000
Si       7.52500000      52.67500000       3.00000000
Si       7.52500000      54.82500000       3.00000000
Si       7.52500000      56.97500000       3.00000000
Si       7.52500000      59.12500000       3.00000000
Si       7.52500000      61.27500000       3.00000000
Si       7.52500000      63.42500000       3.00000000
Si       7.52500000      65.57500000       3.00000000
Si       7.52500000      67.72500000       3.00000000
Si       9.67500000       1.07500000       3.00000000
Si       9.67500000       3.22500000       3.00000000
Si       9.67500000       5.37500000       3.00000000
Si       9.67500000       7.52500000       3.00000000
Si       9.67500000       9.67500000       3.00000000
Si       9.67500000      11.82500000       3.00000000
Si       9.67500000      13.97500000       3.00000000
Si       9.67500000      16.12500000       3.00000000
Si       9.67500000      18.27500000       3.00000000
Si       9.67500000      20.42500000       3.00000000
Si       9.67500000      22.57500000       3.00000000
Si       9.67500000      24.72500000       3.00000000
Si       9.67500000      26.87500000       3.00000000
Si       9.67500000      29.02500000       3.00000000
Si       9.67500000      31.17500000       3.00000000
Si       9.67500000      33.32500000       3.00000000
Si       9.67500000      35.47500000       3.00000000
Si       9.67500000      37.62500000       3.00000000
Si       9.67500000      39.77500000       3.00000000
Si       9.67500000      41.92500000       3.00000000
Si       9.67500000      44.07500000       3.00000000
Si       9.67500000      46.22500000       3.00000000
Si       9.67500000      48.37500000       3.00000000
Si       9.67500000      50.52500000       3.00000000
Si       9.67500000      52.67500000       3.00000000
Si       9.67500000      54.82500000       3.00000000
Si       9.67500000      56.97500000       3.00000000
Si       9.67500000      59.12500000       3.00000000
Si       9.67500000      61.27500000       3.00000000
Si       9.67500000      63.42500000       3.00000000
Si       9.67500000      65.57500000       3.00000000
Si       9.67500000      67.72500000       3.00000000
Si      11.82500000       1.07500000       3.00000000
Si      11.82500000       3.22500000       3.00000000
Si      11.82500000       5.37500000       3.00000000
Si      11.82500000       7.52500000       3.00000000
Si      11.82500000       9.67500000       3.00000000
Si      11.82500000      11.82500000       3.00000000
Si      11.82500000      13.97500000       3.00000000
Si      11.82500000      16.12500000       3.00000000
Si      11.82500000      18.27500000       3.00000000
Si      11.82500000      20.42500000       3.00000000
Si      11.82500000      22.57500000       3.00000000
Si      11.82500000      24.72500000       3.00000000
Si      11.82500000      26.87500000       3.00000000
Si      11.82500000      29.02500000       3.00000000
Si      11.82500000      31.17500000       3.00000000
Si      11.82500000      33.32500000       3.00000000
Si      11.82500000      35.47500000       3.00000000
Si      11.82500000      37.62500000       3.00000000
Si      11.82500000      39.77500000       3.00000000
Si      11.82500000      41.92500000       3.00000000
Si      11.82500000      44.07500000       3.00000000
Si      11.82500000      46.22500000       3.00000000
Si      11.82500000      48.37500000       3.00000000
Si      11.82500000      50.52500000       3.00000000
Si      11.82500000      52.67500000       3.00000000
Si      11.82500000      54.82500000       3.00000000
Si      11.82500000      56.97500000       3.00000000
Si      11.82500000      59.12500000       3.00000000
Si      11.82500000      61.27500000       3.00000000
Si      11.82500000      63.42500000       3.00000000
Si      11.82500000      65.57500000       3.00000000
Si      11.82500000      67.72500000       3.00000000
Si      13.97500000       1.07500000       3.00000000
Si      13.97500000       3.22500000       3.00000000
Si      13.97500000       5.37500000       3.00000000
Si      13.97500000       7.52500000       3.00000000
Si      13.97500000       9.67500000       3.00000000
Si      13.97500000      11.82500000       3.00000000
Si      13.97500000      13.97500000       3.00000000
Si      13.97500000      16.12500000       3.00000000
Si      13.97500000      18.27500000       3.00000000
Si      13.97500000      20.42500000       3.00000000
Si      13.97500000      22.57500000       3.00000000
Si      13.97500000      24.72500000       3.00000000
Si      13.97500000      26.87500000       3.00000000
Si      13.97500000      29.02500000       3.00000000
Si      13.97500000      31.17500000       3.00000000
Si      13.97500000      33.32500000       3.00000000
Si      13.97500000      35.47500000       3.00000000
Si      13.97500000      37.62500000       3.00000000
Si      13.97500000      39.77500000       3.00000000
Si      13.97500000      41.92500000       3.00000000
Si      13.97500000      44.07500000       3.00000000
Si      13.97500000      46.22500000       3.00000000
Si      13.97500000      48.37500000       3.00000000
Si      13.97500000      50.52500000       3.00000000
Si      13.97500000      52.67500000       3.00000000
Si      13.97500000      54.82500000       3.00000000
Si      13.97500000      56.97500000       3.00000000
Si      13.97500000      59.12500000       3.00000000
Si      13.97500000      61.27500000       3.00000000
Si      13.97500000      63.42500000       3.00000000
Si      13.97500000      65.57500000       3.00000000
Si      13.97500000      67.72500000       3.00000000
Si      16.12500000       1.07500000       3.00000000
Si      16.12500000       3.22500000       3.00000000
Si      16.12500000       5.37500000       3.00000000
Si      16.12500000       7.52500000       3.00000000
Si      16.12500000       9.67500000       3.00000000
Si      16.12500000      11.82500000       3.00000000
Si      16.12500000      13.97500000       3.00000000
Si      16.12500000      16.12500000       3.00000000
Si      16.12500000      18.27500000       3.00000000
Si      16.12500000      20.42500000       3.00000000
Si      16.12500000      22.57500000       3.00000000
Si      16.12500000      24.72500000       3.00000000
Si      16.12500000      26.87500000       3.00000000
Si      16.12500000      29.02500000       3.00000000
Si      16.12500000      31.17500000       3.00000000
Si      16.12500000      33.32500000       3.00000000
Si      16.12500000      35.47500000       3.00000000
Si      16.12500000      37.62500000       3.00000000
Si      16.12500000      39.77500000       3.00000000
Si      16.12500000      41.92500000       3.00000000
Si      16.12500000      44.07500000       3.00000000
Si      16.12500000      46.22500000       3.00000000
Si      16.12500000      48.37500000       3.00000000
Si      16.12500000      50.52500000       3.00000000
Si      16.12500000      52.67500000       3.00000000
Si      16.12500000      54.82500000       3.00000000
Si      16.12500000      56.97500000       3.00000000
Si      16.12500000      59.12500000       3.00000000
Si      16.12500000      61.27500000       3.00000000
Si      16.12500000      63.42500000       3.00000000
Si      16.12500000      65.57500000       3.00000000
Si      16.12500000      67.72500000       3.00000000
Si      18.27500000       1.07500000       3.00000000
Si      18.27500000       3.22500000       3.00000000
Si      18.27500000       5.37500000       3.00000000
Si      18.27500000       7.52500000       3.00000000
Si      18.27500000       9.67500000       3.00000000
Si      18.27500000      11.82500000       3.00000000
Si      18.27500000      13.97500000       3.00000000
Si      18.27500000      16.12500000       3.00000000
Si      18.27500000      18.27500000       3.00000000
Si      18.27500000      20.42500000       3.00000000
Si      18.27500000      22.57500000       3.00000000
Si      18.27500000      24.72500000       3.00000000
Si      18.27500000      26.87500000       3.00000000
Si      18.27500000      29.02500000       3.00000000
Si      18.27500000      31.17500000       3.00000000
Si      18.27500000      33.32500000       3.00000000
Si      18.27500000      35.47500000       3.00000000
Si      18.27500000      37.62500000       3.00000000
Si      18.27500000      39.77500000       3.00000000
Si      18.27500000      41.92500000       3.00000000
Si      18.27500000      44.07500000       3.00000000
Si      18.27500000      46.22500000       3.00000000
Si      18.27500000      48.37500000       3.00000000
Si      18.27500000      50.52500000       3.00000000
Si      18.27500000      52.67500000       3.00000000
Si      18.27500000      54.82500000       3.00000000
Si      18.27500000      56.97500000       3.00000000
Si      18.27500000      59.12500000       3.00000000
Si      18.27500000      61.27500000       3.00000000
Si      18.27500000      63.42500000       3.00000000
Si      18.27500000      65.57500000       3.00000000
Si      18.27500000      67.72500000       3.00000000
Si      20.42500000       1.07500000       3.00000000
Si      20.42500000       3.22500000       3.00000000
Si      20.42500000       5.37500000       3.00000000
Si      20.42500000       7.52500000       3.00000000
Si      20.42500000       9.67500000       3.00000000
Si      20.42500000      11.82500000       3.00000000
Si      20.42500000      13.97500000       3.00000000
Si      20.42500000      16.12500000       3.00000000
Si      20.42500000      18.27500000       3.00000000
Si      20.42500000      20.42500000       3.00000000
Si      20.42500000      22.57500000       3.00000000
Si      20.42500000      24.72500000       3.00000000
Si      20.42500000      26.87500000       3.00000000
Si      20.42500000      29.02500000       3.00000000
Si      20.42500000      31.17500000       3.00000000
Si      20.42500000      33.32500000       3.00000000
Si      20.42500000      35.47500000       3.00000000
Si      20.42500000      37.62500000       3.00000000
Si      20.42500000      39.77500000       3.00000000
Si      20.42500000      41.92500000       3.00000000
Si      20.42500000      44.07500000       3.00000000
Si      20.42500000      46.22500000       3.00000000
Si      20.42500000      48.37500000       3.00000000
Si      20.42500000      50.52500000       3.00000000
Si      20.42500000      52.67500000       3.00000000
Si      20.42500000      54.82500000       3.00000000
Si      20.42500000      56.97500000       3.00000000
Si      20.42500000      59.12500000       3.00000000
Si      20.42500000      61.27500000       3.00000000
Si      20.42500000      63.42500000       3.00000000
Si      20.42500000      65.57500000       3.00000000
Si      20.42500000      67.72500000       3.00000000
Si      22.57500000       1.07500000       3.00000000
Si      22.57500000       3.22500000       3.00000000
Si      22.57500000       5.37500000       3.00000000
Si      22.57500000       7.52500000       3.00000000
Si      22.57500000       9.67500000       3.00000000
Si      22.57500000      11.82500000       3.00000000
Si      22.57500000      13.97500000       3.00000000
Si      22.57500000      16.12500000       3.00000000
Si      22.57500000      18.27500000       3.00000000
Si      22.57500000      20.42500000       3.00000000
Si      22.57500000      22.57500000       3.00000000
Si      22.57500000      24.72500000       3.00000000
Si      22.57500000      26.87500000       3.00000000
Si      22.57500000      29.02500000       3.00000000
Si      22.57500000      31.17500000       3.00000000
Si      22.57500000      33.32500000       3.00000000
Si      22.57500000      35.47500000       3.00000000
Si      22.57500000      37.62500000       3.00000000
Si      22.57500000      39.77500000       3.00000000
Si      22.57500000      41.92500000       3.00000000
Si      22.57500000      44.07500000       3.00000000
Si      22.57500000      46.22500000       3.00000000
Si      22.57500000      48.37500000       3.00000000
Si      22.57500000      50.52500000       3.00000000
Si      22.57500000      52.67500000       3.00000000
Si      22.57500000      54.82500000       3.00000000
Si      22.57500000      56.97500000       3.00000000
Si      22.57500000      59.12500000       3.00000000
Si      22.57500000      61.27500000       3.00000000
Si      22.57500000      63.42500000       3.00000000
Si      22.57500000      65.57500000       3.00000000
Si      22.57500000      67.72500000       3.00000000
Si      24.72500000       1.07500000       3.00000000
Si      24.72500000       3.22500000       3.00000000
Si      24.72500000       5.37500000       3.00000000
Si      24.72500000       7.52500000       3.00000000
Si      24.72500000       9.67500000       3.00000000
Si      24.72500000      11.82500000       3.00000000
Si      24.72500000      13.97500000       3.00000000
Si      24.72500000      16.12500000       3.00000000
Si      24.72500000      18.27500000       3.00000000
Si      24.72500000      20.42500000       3.00000000
Si      24.72500000      22.57500000       3.00000000
Si      24.72500000      24.72500000       3.00000000
Si      24.72500000      26.87500000       3.00000000
Si      24.72500000      29.02500000       3.00000000
Si      24.72500000      31.17500000       3.00000000
Si      24.72500000      33.32500000       3.00000000
Si      24.72500000      35.47500000       3.00000000
Si      24.72500000      37.62500000       3.00000000
Si      24.72500000      39.77500000       3.00000000
Si      24.72500000      41.92500000       3.00000000
Si      24.72500000      44.07500000       3.00000000
Si      24.72500000      46.22500000       3.00000000
Si      24.72500000      48.37500000       3.00000000
Si      24.72500000      50.52500000       3.00000000
Si      24.72500000      52.67500000       3.00000000
Si      24.72500000      54.82500000       3.00000000
Si      24.72500000      56.97500000       3.00000000
Si      24.72500000      59.12500000       3.00000000
Si      24.72500000      61.27500000       3.00000000
Si      24.72500000      63.42500000       3.00000000
Si      24.72500000      65.57500000       3.00000000
Si      24.72500000      67.72500000       3.00000000
Si      26.87500000       1.07500000       3.00000000
Si      26.87500000       3.22500000       3.00000000
Si      26.87500000       5.37500000       3.00000000
Si      26.87500000       7.52500000       3.00000000
Si      26.87500000       9.67500000       3.00000000
Si      26.87500000      11.82500000       3.00000000
Si      26.87500000      13.97500000       3.00000000
Si      26.87500000      16.12500000       3.00000000
Si      26.87500000      18.27500000       3.00000000
Si      26.87500000      20.42500000       3.00000000
Si      26.87500000      22.57500000       3.00000000
Si      26.87500000      24.72500000       3.00000000
Si      26.87500000      26.87500000       3.00000000
Si      26.87500000      29.02500000       3.00000000
Si      26.87500000      31.17500000       3.00000000
Si      26.87500000      33.32500000       3.00000000
Si      26.87500000      35.47500000       3.00000000
Si      26.87500000      37.62500000       3.00000000
Si      26.87500000      39.77500000       3.00000000
Si      26.87500000      41.92500000       3.00000000
Si      26.87500000      44.07500000       3.00000000
Si      26.87500000      46.22500000       3.00000000
Si      26.87500000      48.37500000       3.00000000
Si      26.87500000      50.52500000       3.00000000
Si      26.87500000      52.67500000       3.00000000
Si      26.87500000      54.82500000       3.00000000
Si      26.87500000      56.97500000       3.00000000
Si      26.87500000      59.12500000       3.00000000
Si      26.87500000      61.27500000       3.00000000
Si      26.87500000      63.42500000       3.00000000
Si      26.87500000      65.57500000       3.00000000
Si      26.87500000      67.72500000       3.00000000
Si      29.02500000       1.07500000       3.00000000
Si      29.02500000       3.22500000       3.00000000
Si      29.02500000       5.37500000       3.00000000
Si      29.02500000       7.52500000       3.00000000
Si      29.02500000       9.67500000       3.00000000
Si      29.02500000      11.82500000       3.00000000
Si      29.02500000      13.97500000       3.00000000
Si      29.02500000      16.12500000       3.00000000
Si      29.02500000      18.27500000       3.00000000
Si      29.02500000      20.42500000       3.00000000
Si      29.02500000      22.57500000       3.00000000
Si      29.02500000      24.72500000       3.00000000
Si      29.02500000      26.87500000       3.00000000
Si      29.02500000      29.02500000       3.00000000
Si      29.02500000      31.17500000       3.00000000
Si      29.02500000      33.32500000       3.00000000
Si      29.02500000      35.47500000       3.00000000
Si      29.02500000      37.62500000       3.00000000
Si      29.02500000      39.77500000       3.00000000
Si      29.02500000      41.92500000       3.00000000
Si      29.02500000      44.07500000       3.00000000
Si      29.02500000      46.22500000       3.00000000
Si      29.02500000      48.37500000       3.00000000
Si      29.02500000      50.52500000       3.00000000
Si      29.02500000      52.67500000       3.00000000
Si      29.02500000      54.82500000       3.00000000
Si      29.02500000      56.97500000       3.00000000
Si      29.02500000      59.12500000       3.00000000
Si      29.02500000      61.27500000       3.00000000
Si      29.02500000      63.42500000       3.00000000
Si      29.02500000      65.57500000       3.00000000
Si      29.02500000      67.72500000       3.00000000
Si      31.17500000       1.07500000       3.00000000
Si      31.17500000       3.22500000       3.00000000
Si      31.17500000       5.37500000       3.00000000
Si      31.17500000       7.52500000       3.00000000
Si      31.17500000       9.67500000       3.00000000
Si      31.17500000      11.82500000       3.00000000
Si      31.17500000      13.97500000       3.00000000
Si      31.17500000      16.12500000       3.00000000
Si      31.17500000      18.27500000       3.00000000
Si      31.17500000      20.42500000       3.00000000
Si      31.17500000      22.57500000       3.00000000
Si      31.17500000      24.72500000       3.00000000
Si      31.17500000      26.87500000       3.00000000
Si      31.17500000      29.02500000       3.00000000
Si      31.17500000      31.17500000       3.00000000
Si      31.17500000      33.32500000       3.00000000
Si      31.17500000      35.47500000       3.00000000
Si      31.17500000      37.62500000       3.00000000
Si      31.17500000      39.77500000       3.00000000
Si      31.17500000      41.92500000       3.00000000
Si      31.17500000      44.07500000       3.00000000
Si      31.17500000      46.22500000       3.00000000
Si      31.17500000      48.37500000       3.00000000
Si      31.17500000      50.52500000       3.00000000
Si      31.17500000      52.67500000       3.00000000
Si      31.17500000      54.82500000       3.00000000
Si      31.17500000      56.97500000       3.00000000
Si      31.17500000      59.12500000       3.00000000
Si      31.17500000      61.27500000       3.00000000
Si      31.17500000      63.42500000       3.00000000
Si      31.17500000      65.57500000       3.00000000
Si      31.17500000      67.72500000       3.00000000
Si      33.32500000       1.07500000       3.00000000
Si      33.32500000       3.22500000       3.00000000
Si      33.32500000       5.37500000       3.00000000
Si      33.32500000       7.52500000       3.00000000
Si      33.32500000       9.67500000       3.00000000
Si      33.32500000      11.82500000       3.00000000
Si      33.32500000      13.97500000       3.00000000
Si      33.32500000      16.12500000       3.00000000
Si      33.32500000      18.27500000       3.00000000
Si      33.32500000      20.42500000       3.00000000
Si      33.32500000      22.57500000       3.00000000
Si      33.32500000      24.72500000       3.00000000
Si      33.32500000      26.87500000       3.00000000
Si      33.32500000      29.02500000       3.00000000
Si      33.32500000      31.17500000       3.00000000
Si      33.32500000      33.32500000       3.00000000
Si      33.32500000      35.47500000       3.00000000
Si      33.32500000      37.62500000       3.00000000
Si      33.32500000      39.77500000       3.00000000
Si      33.32500000      41.92500000       3.00000000
Si      33.32500000      44.07500000       3.00000000
Si      33.32500000      46.22500000       3.00000000
Si      33.32500000      48.37500000       3.00000000
Si      33.32500000      50.52500000       3.00000000
Si      33.32500000      52.67500000       3.00000000
Si      33.32500000      54.82500000       3.00000000
Si      33.32500000      56.97500000       3.00000000
Si      33.32500000      59.12500000       3.00000000
Si      33.32500000      61.27500000       3.00000000
Si      33.32500000      63.42500000       3.00000000
Si      33.32500000      65.57500000       3.00000000
Si      33.32500000      67.72500000       3.00000000
Si      35.47500000       1.07500000       3.00000000
Si      35.47500000       3.22500000       3.00000000
Si      35.47500000       5.37500000       3.00000000
Si      35.47500000       7.52500000       3.00000000
Si      35.47500000       9.67500000       3.00000000
Si      35.47500000      11.82500000       3.00000000
Si      35.47500000      13.97500000       3.00000000
Si      35.47500000      16.12500000       3.00000000
Si      35.47500000      18.27500000       3.00000000
Si      35.47500000      20.42500000       3.00000000
Si      35.47500000      22.57500000       3.00000000
Si      35.47500000      24.72500000       3.00000000
Si      35.47500000      26.87500000       3.00000000
Si      35.47500000      29.02500000       3.00000000
Si      35.47500000      31.17500000       3.00000000
Si      35.47500000      33.32500000       3.00000000
Si      35.47500000      35.47500000       3.00000000
Si      35.47500000      37.62500000       3.00000000
Si      35.47500000      39.77500000       3.00000000
Si      35.47500000      41.92500000       3.00000000
Si      35.47500000      44.07500000       3.00000000
Si      35.47500000      46.22500000       3.00000000
Si      35.47500000      48.37500000       3.00000000
Si      35.47500000      50.52500000       3.00000000
Si      35.47500000      52.67500000       3.00000000
Si      35.47500000      54.82500000       3.00000000
Si      35.47500000      56.97500000       3.00000000
Si      35.47500000      59.12500000       3.00000000
Si      35.47500000      61.27500000       3.00000000
Si      35.47500000      63.42500000       3.00000000
Si      35.47500000      65.57500000       3.00000000
Si      35.47500000      67.72500000       3.00000000
Si      37.62500000       1.07500000       3.00000000
Si      37.62500000       3.22500000       3.00000000
Si      37.62500000       5.37500000       3.00000000
Si      37.62500000       7.52500000       3.00000000
Si      37.62500000       9.67500000       3.00000000
Si      37.62500000      11.82500000       3.00000000
Si      37.62500000      13.97500000       3.00000000
Si      37.62500000      16.12500000       3.00000000
Si      37.62500000      18.27500000       3.00000000
Si      37.62500000      20.42500000       3.00000000
Si      37.62500000      22.57500000       3.00000000
Si      37.62500000      24.72500000       3.00000000
Si      37.62500000      26.87500000       3.00000000
Si      37.62500000      29.02500000       3.00000000
Si      37.62500000      31.17500000       3.00000000
Si      37.62500000      33.32500000       3.00000000
Si      37.62500000      35.47500000       3.00000000
Si      37.62500000      37.62500000       3.00000000
Si      37.62500000      39.77500000       3.00000000
Si      37.62500000      41.92500000       3.00000000
Si      37.62500000      44.07500000       3.00000000
Si      37.62500000      46.22500000       3.00000000
Si      37.62500000      48.37500000       3.00000000
Si      37.62500000      50.52500000       3.00000000
Si      37.62500000      52.67500000       3.00000000
Si      37.62500000      54.82500000       3.00000000
Si      37.62500000      56.97500000       3.00000000
Si      37.62500000      59.12500000       3.00000000
Si      37.62500000      61.27500000       3.00000000
Si      37.62500000      63.42500000       3.00000000
Si      37.62500000      65.57500000       3.00000000
Si      37.62500000      67.72500000       3.00000000
Si      39.77500000       1.07500000       3.00000000
Si      39.77500000       3.22500000       3.00000000
Si      39.77500000       5.37500000       3.00000000
Si      39.77500000       7.52500000       3.00000000
Si      39.77500000       9.67500000       3.00000000
Si      39.77500000      11.82500000       3.00000000
Si      39.77500000      13.97500000       3.00000000
Si      39.77500000      16.12500000       3.00000000
Si      39.77500000      18.27500000       3.00000000
Si      39.77500000      20.42500000       3.00000000
Si      39.77500000      22.57500000       3.00000000
Si      39.77500000      24.72500000       3.00000000
Si      39.77500000      26.87500000       3.00000000
Si      39.77500000      29.02500000       3.00000000
Si      39.77500000      31.17500000       3.00000000
Si      39.77500000      33.32500000       3.00000000
Si      39.77500000      35.47500000       3.00000000
Si      39.77500000      37.62500000       3.00000000
Si      39.77500000      39.77500000       3.00000000
Si      39.77500000      41.92500000       3.00000000
Si      39.77500000      44.07500000       3.00000000
Si      39.77500000      46.22500000       3.00000000
Si      39.77500000      48.37500000       3.00000000
Si      39.77500000      50.52500000       3.00000000
Si      39.77500000      52.67500000       3.00000000
Si      39.77500000      54.82500000       3.00000000
Si      39.77500000      56.97500000       3.00000000
Si      39.77500000      59.12500000       3.00000000
Si      39.77500000      61.27500000       3.00000000
Si      39.77500000      63.42500000       3.00000000
Si      39.77500000      65.57500000       3.00000000
Si      39.77500000      67.72500000       3.00000000
Si      41.92500000       1.07500000       3.00000000
Si      41.92500000       3.22500000       3.00000000
Si      41.92500000       5.37500000       3.00000000
Si      41.92500000       7.52500000       3.00000000
Si      41.92500000       9.67500000       3.00000000
Si      41.92500000      11.82500000       3.00000000
Si      41.92500000      13.97500000       3.00000000
Si      41.92500000      16.12500000       3.00000000
Si      41.92500000      18.27500000       3.00000000
Si      41.92500000      20.42500000       3.00000000
Si      41.92500000      22.57500000       3.00000000
Si      41.92500000      24.72500000       3.00000000
Si      41.92500000      26.87500000       3.00000000
Si      41.92500000      29.02500000       3.00000000
Si      41.92500000      31.17500000       3.00000000
Si      41.92500000      33.32500000       3.00000000
Si      41.92500000      35.47500000       3.00000000
Si      41.92500000      37.62500000       3.00000000
Si      41.92500000      39.77500000       3.00000000
Si      41.92500000      41.92500000       3.00000000
Si      41.92500000      44.07500000       3.00000000
Si      41.92500000      46.22500000       3.00000000
Si      41.92500000      48.37500000       3.00000000
Si      41.92500000      50.52500000       3.00000000
Si      41.92500000      52.67500000       3.00000000
Si      41.92500000      54.82500000       3.00000000
Si      41.92500000      56.97500000       3.00000000
Si      41.92500000      59.12500000       3.00000000
Si      41.92500000      61.27500000       3.00000000
Si      41.92500000      63.42500000       3.00000000
Si      41.92500000      65.57500000       3.00000000
Si      41.92500000      67.72500000       3.00000000
Si      44.07500000       1.07500000       3.00000000
Si      44.07500000       3.22500000       3.00000000
Si      44.07500000       5.37500000       3.00000000
Si      44.07500000       7.52500000       3.00000000
Si      44.07500000       9.67500000       3.00000000
Si      44.07500000      11.82500000       3.00000000
Si      44.07500000      13.97500000       3.00000000
Si      44.07500000      16.12500000       3.00000000
Si      44.07500000      18.27500000       3.00000000
Si      44.07500000      20.42500000       3.00000000
Si      44.07500000      22.57500000       3.00000000
Si      44.07500000      24.72500000       3.00000000
Si      44.07500000      26.87500000       3.00000000
Si      44.07500000      29.02500000       3.00000000
Si      44.07500000      31.17500000       3.00000000
Si      44.07500000      33.32500000       3.00000000
Si      44.07500000      35.47500000       3.00000000
Si      44.07500000      37.62500000       3.00000000
Si      44.07500000      39.77500000       3.00000000
Si      44.07500000      41.92500000       3.00000000
Si      44.07500000      44.07500000       3.00000000
Si      44.07500000      46.22500000       3.00000000
Si      44.07500000      48.37500000       3.00000000
Si      44.07500000      50.52500000       3.00000000
Si      44.07500000      52.67500000       3.00000000
Si      44.07500000      54.82500000       3.00000000
Si      44.07500000      56.97500000       3.00000000
Si      44.07500000      59.12500000       3.00000000
Si      44.07500000      61.27500000       3.00000000
Si      44.07500000      63.42500000       3.00000000
Si      44.07500000      65.57500000       3.00000000
Si      44.07500000      67.72500000       3.00000000
Si      46.22500000       1.07500000       3.00000000
Si      46.22500000       3.22500000       3.00000000
Si      46.22500000       5.37500000       3.00000000
Si      46.22500000       7.52500000       3.00000000
Si      46.22500000       9.67500000       3.00000000
Si      46.22500000      11.82500000       3.00000000
Si      46.22500000      13.97500000       3.00000000
Si      46.22500000      16.12500000       3.00000000
Si      46.22500000      18.27500000       3.00000000
Si      46.22500000      20.42500000       3.00000000
Si      46.22500000      22.57500000       3.00000000
Si      46.22500000      24.72500000       3.00000000
Si      46.22500000      26.87500000       3.00000000
Si      46.22500000      29.02500000       3.00000000
Si      46.22500000      31.17500000       3.00000000
Si      46.22500000      33.32500000       3.00000000
Si      46.22500000      35.47500000       3.00000000
Si      46.22500000      37.62500000       3.00000000
Si      46.22500000      39.77500000       3.00000000
Si      46.22500000      41.92500000       3.00000000
Si      46.22500000      44.07500000       3.00000000
Si      46.22500000      46.22500000       3.00000000
Si      46.22500000      48.37500000       3.00000000
Si      46.22500000      50.52500000       3.00000000
Si      46.22500000      52.67500000       3.00000000
Si      46.22500000      54.82500000       3.00000000
Si      46.22500000      56.97500000       3.00000000
Si      46.22500000      59.12500000       3.00000000
Si      46.22500000      61.27500000       3.00000000
Si      46.22500000      63.42500000       3.00000000
Si      46.22500000      65.57500000       3.00000000
Si      46.22500000      67.72500000       3.00000000
Si      48.37500000       1.07500000       3.00000000
Si      48.37500000       3.22500000       3.00000000
Si      48.37500000       5.37500000       3.00000000
Si      48.37500000       7.52500000       3.00000000
Si      48.37500000       9.67500000       3.00000000
Si      48.37500000      11.82500000       3.00000000
Si      48.37500000      13.97500000       3.00000000
Si      48.37500000      16.12500000       3.00000000
Si      48.37500000      18.27500000       3.00000000
Si      48.37500000      20.42500000       3.00000000
Si      48.37500000      22.57500000       3.00000000
Si      48.37500000      24.72500000       3.00000000
Si      48.37500000      26.87500000       3.00000000
Si      48.37500000      29.02500000       3.00000000
Si      48.37500000      31.17500000       3.00000000
Si      48.37500000      33.32500000       3.00000000
Si      48.37500000      35.47500000       3.00000000
Si      48.37500000      37.62500000       3.00000000
Si      48.37500000      39.77500000       3.00000000
Si      48.37500000      41.92500000       3.00000000
Si      48.37500000      44.07500000       3.00000000
Si      48.37500000      46.22500000       3.00000000
Si      48.37500000      48.37500000       3.00000000
Si      48.37500000      50.52500000       3.00000000
Si      48.37500000      52.67500000       3.00000000
Si      48.37500000      54.82500000       3.00000000
Si      48.37500000      56.97500000       3.00000000
Si      48.37500000      59.12500000       3.00000000
Si      48.37500000      61.27500000       3.00000000
Si      48.37500000      63.42500000       3.00000000
Si      48.37500000      65.57500000       3.00000000
Si      48.37500000      67.72500000       3.00000000
Si      50.52500000       1.07500000       3.00000000
Si      50.52500000       3.22500000       3.00000000
Si      50.52500000       5.37500000       3.00000000
Si      50.52500000       7.52500000       3.00000000
Si      50.52500000       9.67500000       3.00000000
Si      50.52500000      11.82500000       3.00000000
Si      50.52500000      13.97500000       3.00000000
Si      50.52500000      16.12500000       3.00000000
Si      50.52500000      18.27500000       3.00000000
Si      50.52500000      20.42500000       3.00000000
Si      50.52500000      22.57500000       3.00000000
Si      50.52500000      24.72500000       3.00000000
Si      50.52500000      26.87500000       3.00000000
Si      50.52500000      29.02500000       3.00000000
Si      50.52500000      31.17500000       3.00000000
Si      50.52500000      33.32500000       3.00000000
Si      50.52500000      35.47500000       3.00000000
Si      50.52500000      37.62500000       3.00000000
Si      50.52500000      39.77500000       3.00000000
Si      50.52500000      41.92500000       3.00000000
Si      50.52500000      44.07500000       3.00000000
Si      50.52500000      46.22500000       3.00000000
Si      50.52500000      48.37500000       3.00000000
Si      50.52500000      50.52500000       3.00000000
Si      50.52500000      52.67500000       3.00000000
Si      50.52500000      54.82500000       3.00000000
Si      50.52500000      56.97500000       3.00000000
Si      50.52500000      59.12500000       3.00000000
Si      50.52500000      61.27500000       3.00000000
Si      50.52500000      63.42500000       3.00000000
Si      50.52500000      65.57500000       3.00000000
Si      50.52500000      67.72500000       3.00000000
Si      52.67500000       1.07500000       3.00000000
Si      52.67500000       3.22500000       3.00000000
Si      52.67500000       5.37500000       3.00000000
Si      52.67500000       7.52500000       3.00000000
Si      52.67500000       9.67500000       3.00000000
Si      52.67500000      11.82500000       3.00000000
Si      52.67500000      13.97500000       3.00000000
Si      52.67500000      16.12500000       3.00000000
Si      52.67500000      18.27500000       3.00000000
Si      52.67500000      20.42500000       3.00000000
Si      52.67500000      22.57500000       3.00000000
Si      52.67500000      24.72500000       3.00000000
Si      52.67500000      26.87500000       3.00000000
Si      52.67500000      29.02500000       3.00000000
Si      52.67500000      31.17500000       3.00000000
Si      52.67500000      33.32500000       3.00000000
Si      52.67500000      35.47500000       3.00000000
Si      52.67500000      37.62500000       3.00000000
Si      52.67500000      39.77500000       3.00000000
Si      52.67500000      41.92500000       3.00000000
Si      52.67500000      44.07500000       3.00000000
Si      52.67500000      46.22500000       3.00000000
Si      52.67500000      48.37500000       3.00000000
Si      52.67500000      50.52500000       3.00000000
Si      52.67500000      52.67500000       3.00000000
Si      52.67500000      54.82500000       3.00000000
Si      52.67500000      56.97500000       3.00000000
Si      52.67500000      59.12500000       3.00000000
Si      52.67500000      61.27500000       3.00000000
Si      52.67500000      63.42500000       3.00000000
Si      52.67500000      65.57500000       3.00000000
Si      52.67500000      67.72500000       3.00000000
Si      54.82500000       1.07500000       3.00000000
Si      54.82500000       3.22500000       3.00000000
Si      54.82500000       5.37500000       3.00000000
Si      54.82500000       7.52500000       3.00000000
Si      54.82500000       9.67500000       3.00000000
Si      54.82500000      11.82500000       3.00000000
Si      54.82500000      13.97500000       3.00000000
Si      54.82500000      16.12500000       3.00000000
Si      54.82500000      18.27500000       3.00000000
Si      54.82500000      20.42500000       3.00000000
Si      54.82500000      22.57500000       3.00000000
Si      54.82500000      24.72500000       3.00000000
Si      54.82500000      26.87500000       3.00000000
Si      54.82500000      29.02500000       3.00000000
Si      54.82500000      31.17500000       3.00000000
Si      54.82500000      33.32500000       3.00000000
Si      54.82500000      35.47500000       3.00000000
Si      54.82500000      37.62500000       3.00000000
Si      54.82500000      39.77500000       3.00000000
Si      54.82500000      41.92500000       3.00000000
Si      54.82500000      44.07500000       3.00000000
Si      54.82500000      46.22500000       3.00000000
Si      54.82500000      48.37500000       3.00000000
Si      54.82500000      50.52500000       3.00000000
Si      54.82500000      52.67500000       3.00000000
Si      54.82500000      54.82500000       3.00000000
Si      54.82500000      56.97500000       3.00000000
Si      54.82500000      59.12500000       3.00000000
Si      54.82500000      61.27500000       3.00000000
Si      54.82500000      63.42500000       3.00000000
Si      54.82500000      65.57500000       3.00000000
Si      54.82500000      67.72500000       3.00000000
Si      56.97500000       1.07500000       3.00000000
Si      56.97500000       3.22500000       3.00000000
Si      56.97500000       5.37500000       3.00000000
Si      56.97500000       7.52500000       3.00000000
Si      56.97500000       9.67500000       3.00000000
Si      56.97500000      11.82500000       3.00000000
Si      56.97500000      13.97500000       3.00000000
Si      56.97500000      16.12500000       3.00000000
Si      56.97500000      18.27500000       3.00000000
Si      56.97500000      20.42500000       3.00000000
Si      56.97500000      22.57500000       3.00000000
Si      56.97500000      24.72500000       3.00000000
Si      56.97500000      26.87500000       3.00000000
Si      56.97500000      29.02500000       3.00000000
Si      56.97500000      31.17500000       3.00000000
Si      56.97500000      33.32500000       3.00000000
Si      56.97500000      35.47500000       3.00000000
Si      56.97500000      37.62500000       3.00000000
Si      56.97500000      39.77500000       3.00000000
Si      56.97500000      41.92500000       3.00000000
Si      56.97500000      44.07500000       3.00000000
Si      56.97500000      46.22500000       3.00000000
Si      56.97500000      48.37500000       3.00000000
Si      56.97500000      50.52500000       3.00000000
Si      56.97500000      52.67500000       3.00000000
Si      56.97500000      54.82500000       3.00000000
Si      56.97500000      56.97500000       3.00000000
Si      56.97500000      59.12500000       3.00000000
Si      56.97500000      61.27500000       3.00000000
Si      56.97500000      63.42500000       3.00000000
Si      56.97500000      65.57500000       3.00000000
Si      56.97500000      67.72500000       3.00000000
Si      59.12500000       1.07500000       3.00000000
Si      59.12500000       3.22500000       3.00000000
Si      59.12500000       5.37500000       3.00000000
Si      59.12500000       7.52500000       3.00000000
Si      59.12500000       9.67500000       3.00000000
Si      59.12500000      11.82500000       3.00000000
Si      59.12500000      13.97500000       3.00000000
Si      59.12500000      16.12500000       3.00000000
Si      59.12500000      18.27500000       3.00000000
Si      59.12500000      20.42500000       3.00000000
Si      59.12500000      22.57500000       3.00000000
Si      59.12500000      24.72500000       3.00000000
Si      59.12500000      26.87500000       3.00000000
Si      59.12500000      29.02500000       3.00000000
Si      59.12500000      31.17500000       3.00000000
Si      59.12500000      33.32500000       3.00000000
Si      59.12500000      35.47500000       3.00000000
Si      59.12500000      37.62500000       3.00000000
Si      59.12500000      39.77500000       3.00000000
Si      59.12500000      41.92500000       3.00000000
Si      59.12500000      44.07500000       3.00000000
Si      59.12500000      46.22500000       3.00000000
Si      59.12500000      48.37500000       3.00000000
Si      59.12500000      50.52500000       3.00000000
Si      59.12500000      52.67500000       3.00000000
Si      59.12500000      54.82500000       3.00000000
Si      59.12500000      56.97500000       3.00000000
Si      59.12500000      59.12500000       3.00000000
Si      59.12500000      61.27500000       3.00000000
Si      59.12500000      63.42500000       3.00000000
Si      59.12500000      65.57500000       3.00000000
Si      59.12500000      67.72500000       3.00000000
Si      61.27500000       1.07500000       3.00000000
Si      61.27500000       3.22500000       3.00000000
Si      61.27500000       5.37500000       3.00000000
Si      61.27500000       7.52500000       3.00000000
Si      61.27500000       9.67500000       3.00000000
Si      61.27500000      11.82500000       3.00000000
Si      61.27500000      13.97500000       3.00000000
Si      61.27500000      16.12500000       3.00000000
Si      61.27500000      18.27500000       3.00000000
Si      61.27500000      20.42500000       3.00000000
Si      61.27500000      22.57500000       3.00000000
Si      61.27500000      24.72500000       3.00000000
Si      61.27500000      26.87500000       3.00000000
Si      61.27500000      29.02500000       3.00000000
Si      61.27500000      31.17500000       3.00000000
Si      61.27500000      33.32500000       3.00000000
Si      61.27500000      35.47500000       3.00000000
Si      61.27500000      37.62500000       3.00000000
Si      61.27500000      39.77500000       3.00000000
Si      61.27500000      41.92500000       3.00000000
Si      61.27500000      44.07500000       3.00000000
Si      61.27500000      46.22500000       3.00000000
Si      61.27500000      48.37500000       3.00000000
Si      61.27500000      50.52500000       3.00000000
Si      61.27500000      52.67500000       3.00000000
Si      61.27500000      54.82500000       3.00000000
Si      61.27500000      56.97500000       3.00000000
Si      61.27500000      59.12500000       3.00000000
Si      61.27500000      61.27500000       3.00000000
Si      61.27500000      63.42500000       3.00000000
Si      61.27500000      65.57500000       3.00000000
Si      61.27500000      67.72500000       3.00000000
Si      63.42500000       1.07500000       3.00000000
Si      63.42500000       3.22500000       3.00000000
Si      63.42500000       5.37500000       3.00000000
Si      63.42500000       7.52500000       3.00000000
Si      63.42500000       9.67500000       3.00000000
Si      63.42500000      11.82500000       3.00000000
Si      63.42500000      13.97500000       3.00000000
Si      63.42500000      16.12500000       3.00000000
Si      63.42500000      18.27500000       3.00000000
Si      63.42500000      20.42500000       3.00000000
Si      63.42500000      22.57500000       3.00000000
Si      63.42500000      24.72500000       3.00000000
Si      63.42500000      26.87500000       3.00000000
Si      63.42500000      29.02500000       3.00000000
Si      63.42500000      31.17500000       3.00000000
Si      63.42500000      33.32500000       3.00000000
Si      63.42500000      35.47500000       3.00000000
Si      63.42500000      37.62500000       3.00000000
Si      63.42500000      39.77500000       3.00000000
Si      63.42500000      41.92500000       3.00000000
Si      63.42500000      44.07500000       3.00000000
Si      63.42500000      46.22500000       3.00000000
Si      63.42500000      48.37500000       3.00000000
Si      63.42500000      50.52500000       3.00000000
Si      63.42500000      52.67500000       3.00000000
Si      63.42500000      54.82500000       3.00000000
Si      63.42500000      56.97500000       3.00000000
Si      63.42500000      59.12500000       3.00000000
Si      63.42500000      61.27500000       3.00000000
Si      63.42500000      63.42500000       3.00000000
Si      63.42500000      65.57500000       3.00000000
Si      63.42500000      67.72500000       3.00000000
Si      65.57500000       1.07500000       3.00000000
Si      65.57500000       3.22500000       3.00000000
Si      65.57500000       5.37500000       3.00000000
Si      65.57500000       7.52500000       3.00000000
Si      65.57500000       9.67500000       3.00000000
Si      65.57500000      11.82500000       3.00000000
Si      65.57500000      13.97500000       3.00000000
Si      65.57500000      16.12500000       3.00000000
Si      65.57500000      18.27500000       3.00000000
Si      65.57500000      20.42500000       3.00000000
Si      65.57500000      22.57500000       3.00000000
Si      65.57500000      24.72500000       3.00000000
Si      65.57500000      26.87500000       3.00000000
Si      65.57500000      29.02500000       3.00000000
Si      65.57500000      31.17500000       3.00000000
Si      65.57500000      33.32500000       3.00000000
Si      65.57500000      35.47500000       3.00000000
Si      65.57500000      37.62500000       3.00000000
Si      65.57500000      39.77500000       3.00000000
Si      65.57500000      41.92500000       3.00000000
Si      65.57500000      44.07500000       3.00000000
Si      65.57500000      46.22500000       3.00000000
Si      65.57500000      48.37500000       3.00000000
Si      65.57500000      50.52500000       3.00000000
Si      65.57500000      52.67500000       3.00000000
Si      65.57500000      54.82500000       3.00000000
Si      65.57500000      56.97500000       3.00000000
Si      65.57500000      59.12500000       3.00000000
Si      65.57500000      61.27500000       3.00000000
Si      65.57500000      63.42500000       3.00000000
Si      65.57500000      65.57500000       3.00000000
Si      65.57500000      67.72500000       3.00000000
Si      67.72500000       1.07500000       3.00000000
Si      67.72500000       3.22500000       3.00000000
Si      67.72500000       5.37500000       3.00000000
Si      67.72500000       7.52500000       3.00000000
Si      67.72500000       9.67500000       3.00000000
Si      67.72500000      11.82500000       3.00000000
Si      67.72500000      13.97500000       3.00000000
Si      67.72500000      16.12500000       3.00000000
Si      67.72500000      18.27500000       3.00000000
Si      67.72500000      20.42500000       3.00000000
Si      67.72500000      22.57500000       3.00000000
Si      67.72500000      24.72500000       3.00000000
Si      67.72500000      26.87500000       3.00000000
Si      67.72500000      29.02500000       3.00000000
Si      67.72500000      31.17500000       3.00000000
Si      67.72500000      33.32500000       3.00000000
Si      67.72500000      35.47500000       3.00000000
Si      67.72500000      37.62500000       3.00000000
Si      67.72500000      39.77500000       3.00000000
Si      67.72500000      41.92500000       3.00000000
Si      67.72500000      44.07500000       3.00000000
Si      67.72500000      46.22500000       3.00000000
Si      67.72500000      48.37500000       3.00000000
Si      67.72500000      50.52500000       3.00000000
Si      67.72500000      52.67500000       3.00000000
Si      67.72500000      54.82500000       3.00000000
Si      67.72500000      56.97500000       3.00000000
Si      67.72500000      59.12500000       3.00000000
Si      67.72500000      61.27500000       3.00000000
Si      67.72500000      63.42500000       3.00000000
Si      67.72500000      65.57500000       3.00000000
Si      67.72500000      67.72500000       3.00000000
Si       2.15000000       2.15000000       5.15000000
Si       2.15000000       4.30000000       5.15000000
Si       2.15000000       6.45000000       5.15000000
Si       2.15000000       8.60000000       5.15000000
Si       2.15000000      10.75000000       5.15000000
Si       2.15000000      12.90000000       5.15000000
Si       2.15000000      15.05000000       5.15000000
Si       2.15000000      17.20000000       5.15000000
Si       2.15000000      19.35000000       5.15000000
Si       2.15000000      21.50000000       5.15000000
Si       2.15000000      23.65000000       5.15000000
Si       2.15000000      25.80000000       5.15000000
Si       2.15000000      27.95000000       5.15000000
Si       2.15000000      30.10000000       5.15000000
Si       2.15000000      32.25000000       5.15000000
Si       2.15000000      34.40000000       5.15000000
Si       2.15000000      36.55000000       5.15000000
Si       2.15000000      38.70000000       5.15000000
Si       2.15000000      40.85000000       5.15000000
Si       2.15000000      43.00000000       5.15000000
Si       2.15000000      45.15000000       5.15000000
Si       2.15000000      47.30000000       5.15000000
Si       2.15000000      49.45000000       5.15000000
Si       2.15000000      51.60000000       5.15000000
Si       2.15000000      53.75000000       5.15000000
Si       2.15000000      55.90000000       5.15000000
Si       2.15000000      58.05000000       5.15000000
Si       2.15000000      60.20000000       5.15000000
Si       2.15000000      62.35000000       5.15000000
Si       2.15000000      64.50000000       5.15000000
Si       2.15000000      66.65000000       5.15000000
Si       2.15000000       0.00000000       5.15000000
Si       4.30000000       2.15000000       5.15000000
Si       4.30000000       4.30000000       5.15000000
Si       4.30000000       6.45000000       5.15000000
Si       4.30000000       8.60000000       5.15000000
Si       4.30000000      10.75000000       5.15000000
Si       4.30000000      12.90000000       5.15000000
Si       4.30000000      15.05000000       5.15000000
Si       4.30000000      17.20000000       5.15000000
Si       4.30000000      19.35000000       5.15000000
Si       4.30000000      21.50000000       5.15000000
Si       4.30000000      23.65000000       5.15000000
Si       4.30000000      25.80000000       5.15000000
Si       4.30000000      27.95000000       5.15000000
Si       4.30000000      30.10000000       5.15000000
Si       4.30000000      32.25000000       5.15000000
Si       4.30000000      34.40000000       5.15000000
Si       4.30000000      36.55000000       5.15000000
Si       4.30000000      38.70000000       5.15000000
Si       4.30000000      40.85000000       5.15000000
Si       4.30000000      43.00000000       5.15000000
Si       4.30000000      45.15000000       5.15000000
Si       4.30000000      47.30000000       5.15000000
Si       4.30000000      49.45000000       5.15000000
Si       4.30000000      51.60000000       5.15000000
Si       4.30000000      53.75000000       5.15000000
Si       4.30000000      55.90000000       5.15000000
Si       4.30000000      58.05000000       5.15000000
Si       4.30000000      60.20000000       5.15000000
Si       4.30000000      62.35000000       5.15000000
Si       4.30000000      64.50000000       5.15000000
Si       4.30000000      66.65000000       5.15000000
Si       4.30000000       0.00000000       5.15000000
Si       6.45000000       2.15000000       5.15000000
Si       6.45000000       4.30000000       5.15000000
Si       6.45000000       6.45000000       5.15000000
Si       6.45000000       8.60000000       5.15000000
Si       6.45000000      10.75000000       5.15000000
Si       6.45000000      12.90000000       5.15000000
Si       6.45000000      15.05000000       5.15000000
Si       6.45000000      17.20000000       5.15000000
Si       6.45000000      19.35000000       5.15000000
Si       6.45000000      21.50000000       5.15000000
Si       6.45000000      23.65000000       5.15000000
Si       6.45000000      25.80000000       5.15000000
Si       6.45000000      27.95000000       5.15000000
Si       6.45000000      30.10000000       5.15000000
Si       6.45000000      32.25000000       5.15000000
Si       6.45000000      34.40000000       5.15000000
Si       6.45000000      36.55000000       5.15000000
Si       6.45000000      38.70000000       5.15000000
Si       6.45000000      40.85000000       5.15000000
Si       6.45000000      43.00000000       5.15000000
Si       6.45000000      45.15000000       5.15000000
Si       6.45000000      47.30000000       5.15000000
Si       6.45000000      49.45000000       5.15000000
Si       6.45000000      51.60000000       5.15000000
Si       6.45000000      53.75000000       5.15000000
Si       6.45000000      55.90000000       5.15000000
Si       6.45000000      58.05000000       5.15000000
Si       6.45000000      60.20000000       5.15000000
Si       6.45000000      62.35000000       5.15000000
Si       6.45000000      64.50000000       5.15000000
Si       6.45000000      66.65000000       5.15000000
Si       6.45000000       0.00000000       5.15000000
Si       8.60000000       2.15000000       5.15000000
Si       8.60000000       4.30000000       5.15000000
Si       8.60000000       6.45000000       5.15000000
Si       8.60000000       8.60000000       5.15000000
Si       8.60000000      10.75000000       5.15000000
Si       8.60000000      12.90000000       5.15000000
Si       8.60000000      15.05000000       5.15000000
Si       8.60000000      17.20000000       5.15000000
Si       8.60000000      19.35000000       5.15000000
Si       8.60000000      21.50000000       5.15000000
Si       8.60000000      23.65000000       5.15000000
Si       8.60000000      25.80000000       5.15000000
Si       8.60000000      27.95000000       5.15000000
Si       8.60000000      30.10000000       5.15000000
Si       8.60000000      32.25000000       5.15000000
Si       8.60000000      34.40000000       5.15000000
Si       8.60000000      36.55000000       5.15000000
Si       8.60000000      38.70000000       5.15000000
Si       8.60000000      40.85000000       5.15000000
Si       8.60000000      43.00000000       5.15000000
Si       8.60000000      45.15000000       5.15000000
Si       8.60000000      47.30000000       5.15000000
Si       8.60000000      49.45000000       5.15000000
Si       8.60000000      51.60000000       5.15000000
Si       8.60000000      53.75000000       5.15000000
Si       8.60000000      55.90000000       5.15000000
Si       8.60000000      58.05000000       5.15000000
Si       8.60000000      60.20000000       5.15000000
Si       8.60000000      62.35000000       5.15000000
Si       8.60000000      64.50000000       5.15000000
Si       8.60000000      66.65000000       5.15000000
Si       8.60000000       0.00000000       5.15000000
Si      10.75000000       2.15000000       5.15000000
Si      10.75000000       4.30000000       5.15000000
Si      10.75000000       6.45000000       5.15000000
Si      10.75000000       8.60000000       5.15000000
Si      10.75000000      10.75000000       5.15000000
Si      10.75000000      12.90000000       5.15000000
Si      10.75000000      15.05000000       5.15000000
Si      10.75000000      17.20000000       5.15000000
Si      10.75000000      19.35000000       5.15000000
Si      10.75000000      21.50000000       5.15000000
Si      10.75000000      23.65000000       5.15000000
Si      10.75000000      25.80000000       5.15000000
Si      10.75000000      27.95000000       5.15000000
Si      10.75000000      30.10000000       5.15000000
Si      10.75000000      32.25000000       5.15000000
Si      10.75000000      34.40000000       5.15000000
Si      10.75000000      36.55000000       5.15000000
Si      10.75000000      38.70000000       5.15000000
Si      10.75000000      40.85000000       5.15000000
Si      10.75000000      43.00000000       5.15000000
Si      10.75000000      45.15000000       5.15000000
Si      10.75000000      47.30000000       5.15000000
Si      10.75000000      49.45000000       5.15000000
Si      10.75000000      51.60000000       5.15000000
Si      10.75000000      53.75000000       5.15000000
Si      10.75000000      55.90000000       5.15000000
Si      10.75000000      58.05000000       5.15000000
Si      10.75000000      60.20000000       5.15000000
Si      10.75000000      62.35000000       5.15000000
Si      10.75000000      64.50000000       5.15000000
Si      10.75000000      66.65000000       5.15000000
Si      10.75000000       0.00000000       5.15000000
Si      12.90000000       2.15000000       5.15000000
Si      12.90000000       4.30000000       5.15000000
Si      12.90000000       6.45000000       5.15000000
Si      12.90000000       8.60000000       5.15000000
Si      12.90000000      10.75000000       5.15000000
Si      12.90000000      12.90000000       5.15000000
Si      12.90000000      15.05000000       5.15000000
Si      12.90000000      17.20000000       5.15000000
Si      12.90000000      19.35000000       5.15000000
Si      12.90000000      21.50000000       5.15000000
Si      12.90000000      23.65000000       5.15000000
Si      12.90000000      25.80000000       5.15000000
Si      12.90000000      27.95000000       5.15000000
Si      12.90000000      30.10000000       5.15000000
Si      12.90000000      32.25000000       5.15000000
Si      12.90000000      34.40000000       5.15000000
Si      12.90000000      36.55000000       5.15000000
Si      12.90000000      38.70000000       5.15000000
Si      12.90000000      40.85000000       5.15000000
Si      12.90000000      43.00000000       5.15000000
Si      12.90000000      45.15000000       5.15000000
Si      12.90000000      47.30000000       5.15000000
Si      12.90000000      49.45000000       5.15000000
Si      12.90000000      51.60000000       5.15000000
Si      12.90000000      53.75000000       5.15000000
Si      12.90000000      55.90000000       5.15000000
Si      12.90000000      58.05000000       5.15000000
Si      12.90000000      60.20000000       5.15000000
Si      12.90000000      62.35000000       5.15000000
Si      12.90000000      64.50000000       5.15000000
Si      12.90000000      66.65000000       5.15000000
Si      12.90000000       0.00000000       5.15000000
Si      15.05000000       2.15000000       5.15000000
Si      15.05000000       4.30000000       5.15000000
Si      15.05000000       6.45000000       5.15000000
Si      15.05000000       8.60000000       5.15000000
Si      15.05000000      10.75000000       5.15000000
Si      15.05000000      12.90000000       5.15000000
Si      15.05000000      15.05000000       5.15000000
Si      15.05000000      17.20000000       5.15000000
Si      15.05000000      19.35000000       5.15000000
Si      15.05000000      21.50000000       5.15000000
Si      15.05000000      23.65000000       5.15000000
Si      15.05000000      25.80000000       5.15000000
Si      15.05000000      27.95000000       5.15000000
Si      15.05000000      30.10000000       5.15000000
Si      15.05000000      32.25000000       5.15000000
Si      15.05000000      34.40000000       5.15000000
Si      15.05000000      36.55000000       5.15000000
Si      15.05000000      38.70000000       5.15000000
Si      15.05000000      40.85000000       5.15000000
Si      15.05000000      43.00000000       5.15000000
Si      15.05000000      45.15000000       5.15000000
Si      15.05000000      47.30000000       5.15000000
Si      15.05000000      49.45000000       5.15000000
Si      15.05000000      51.60000000       5.15000000
Si      15.05000000      53.75000000       5.15000000
Si      15.05000000      55.90000000       5.15000000
Si      15.05000000      58.05000000       5.15000000
Si      15.05000000      60.20000000       5.15000000
Si      15.05000000      62.35000000       5.15000000
Si      15.05000000      64.50000000       5.15000000
Si      15.05000000      66.65000000       5.15000000
Si      15.05000000       0.00000000       5.15000000
Si      17.20000000       2.15000000       5.15000000
Si      17.20000000       4.30000000       5.15000000
Si      17.20000000       6.45000000       5.15000000
Si      17.20000000       8.60000000       5.15000000
Si      17.20000000      10.75000000       5.15000000
Si      17.20000000      12.90000000       5.15000000
Si      17.20000000      15.05000000       5.15000000
Si      17.20000000      17.20000000       5.15000000
Si      17.20000000      19.35000000       5.15000000
Si      17.20000000      21.50000000       5.15000000
Si      17.20000000      23.65000000       5.15000000
Si      17.20000000      25.80000000       5.15000000
Si      17.20000000      27.95000000       5.15000000
Si      17.20000000      30.10000000       5.15000000
Si      17.20000000      32.25000000       5.15000000
Si      17.20000000      34.40000000       5.15000000
Si      17.20000000      36.55000000       5.15000000
Si      17.20000000      38.70000000       5.15000000
Si      17.20000000      40.85000000       5.15000000
Si      17.20000000      43.00000000       5.15000000
Si      17.20000000      45.15000000       5.15000000
Si      17.20000000      47.30000000       5.15000000
Si      17.20000000      49.45000000       5.15000000
Si      17.20000000      51.60000000       5.15000000
Si      17.20000000      53.75000000       5.15000000
Si      17.20000000      55.90000000       5.15000000
Si      17.20000000      58.05000000       5.15000000
Si      17.20000000      60.20000000       5.15000000
Si      17.20000000      62.35000000       5.15000000
Si      17.20000000      64.50000000       5.15000000
Si      17.20000000      66.65000000       5.15000000
Si      17.20000000       0.00000000       5.15000000
Si      19.35000000       2.15000000       5.15000000
Si      19.35000000       4.30000000       5.15000000
Si      19.35000000       6.45000000       5.15000000
Si      19.35000000       8.60000000       5.15000000
Si      19.35000000      10.75000000       5.15000000
Si      19.35000000      12.90000000       5.15000000
Si      19.35000000      15.05000000       5.15000000
Si      19.35000000      17.20000000       5.15000000
Si      19.35000000      19.35000000       5.15000000
Si      19.35000000      21.50000000       5.15000000
Si      19.35000000      23.65000000       5.15000000
Si      19.35000000      25.80000000       5.15000000
Si      19.35000000      27.95000000       5.15000000
Si      19.35000000      30.10000000       5.15000000
Si      19.35000000      32.25000000       5.15000000
Si      19.35000000      34.40000000       5.15000000
Si      19.35000000      36.55000000       5.15000000
Si      19.35000000      38.70000000       5.15000000
Si      19.35000000      40.85000000       5.15000000
Si      19.35000000      43.00000000       5.15000000
Si      19.35000000      45.15000000       5.15000000
Si      19.35000000      47.30000000       5.15000000
Si      19.35000000      49.45000000       5.15000000
Si      19.35000000      51.60000000       5.15000000
Si      19.35000000      53.75000000       5.15000000
Si      19.35000000      55.90000000       5.15000000
Si      19.35000000      58.05000000       5.15000000
Si      19.35000000      60.20000000       5.15000000
Si      19.35000000      62.35000000       5.15000000
Si      19.35000000      64.50000000       5.15000000
Si      19.35000000      66.65000000       5.15000000
Si      19.35000000       0.00000000       5.15000000
Si      21.50000000       2.15000000       5.15000000
Si      21.50000000       4.30000000       5.15000000
Si      21.50000000       6.45000000       5.15000000
Si      21.50000000       8.60000000       5.15000000
Si      21.50000000      10.75000000       5.15000000
Si      21.50000000      12.90000000       5.15000000
Si      21.50000000      15.05000000       5.15000000
Si      21.50000000      17.20000000       5.15000000
Si      21.50000000      19.35000000       5.15000000
Si      21.50000000      21.50000000       5.15000000
Si      21.50000000      23.65000000       5.15000000
Si      21.50000000      25.80000000       5.15000000
Si      21.50000000      27.95000000       5.15000000
Si      21.50000000      30.10000000       5.15000000
Si      21.50000000      32.25000000       5.15000000
Si      21.50000000      34.40000000       5.15000000
Si      21.50000000      36.55000000       5.15000000
Si      21.50000000      38.70000000       5.15000000
Si      21.50000000      40.85000000       5.15000000
Si      21.50000000      43.00000000       5.15000000
Si      21.50000000      45.15000000       5.15000000
Si      21.50000000      47.30000000       5.15000000
Si      21.50000000      49.45000000       5.15000000
Si      21.50000000      51.60000000       5.15000000
Si      21.50000000      53.75000000       5.15000000
Si      21.50000000      55.90000000       5.15000000
Si      21.50000000      58.05000000       5.15000000
Si      21.50000000      60.20000000       5.15000000
Si      21.50000000      62.35000000       5.15000000
Si      21.50000000      64.50000000       5.15000000
Si      21.50000000      66.65000000       5.15000000
Si      21.50000000       0.00000000       5.15000000
Si      23.65000000       2.15000000       5.15000000
Si      23.65000000       4.30000000       5.15000000
Si      23.65000000       6.45000000       5.15000000
Si      23.65000000       8.60000000       5.15000000
Si      23.65000000      10.75000000       5.15000000
Si      23.65000000      12.90000000       5.15000000
Si      23.65000000      15.05000000       5.15000000
Si      23.65000000      17.20000000       5.15000000
Si      23.65000000      19.35000000       5.15000000
Si      23.65000000      21.50000000       5.15000000
Si      23.65000000      23.65000000       5.15000000
Si      23.65000000      25.80000000       5.15000000
Si      23.65000000      27.95000000       5.15000000
Si      23.65000000      30.10000000       5.15000000
Si      23.65000000      32.25000000       5.15000000
Si      23.65000000      34.40000000       5.15000000
Si      23.65000000      36.55000000       5.15000000
Si      23.65000000      38.70000000       5.15000000
Si      23.65000000      40.85000000       5.15000000
Si      23.65000000      43.00000000       5.15000000
Si      23.65000000      45.15000000       5.15000000
Si      23.65000000      47.30000000       5.15000000
Si      23.65000000      49.45000000       5.15000000
Si      23.65000000      51.60000000       5.15000000
Si      23.65000000      53.75000000       5.15000000
Si      23.65000000      55.90000000       5.15000000
Si      23.65000000      58.05000000       5.15000000
Si      23.65000000      60.20000000       5.15000000
Si      23.65000000      62.35000000       5.15000000
Si      23.65000000      64.50000000       5.15000000
Si      23.65000000      66.65000000       5.15000000
Si      23.65000000       0.00000000       5.15000000
Si      25.80000000       2.15000000       5.15000000
Si      25.80000000       4.30000000       5.15000000
Si      25.80000000       6.45000000       5.15000000
Si      25.80000000       8.60000000       5.15000000
Si      25.80000000      10.75000000       5.15000000
Si      25.80000000      12.90000000       5.15000000
Si      25.80000000      15.05000000       5.15000000
Si      25.80000000      17.20000000       5.15000000
Si      25.80000000      19.35000000       5.15000000
Si      25.80000000      21.50000000       5.15000000
Si      25.80000000      23.65000000       5.15000000
Si      25.80000000      25.80000000       5.15000000
Si      25.80000000      27.95000000       5.15000000
Si      25.80000000      30.10000000       5.15000000
Si      25.80000000      32.25000000       5.15000000
Si      25.80000000      34.40000000       5.15000000
Si      25.80000000      36.55000000       5.15000000
Si      25.80000000      38.70000000       5.15000000
Si      25.80000000      40.85000000       5.15000000
Si      25.80000000      43.00000000       5.15000000
Si      25.80000000      45.15000000       5.15000000
Si      25.80000000      47.30000000       5.15000000
Si      25.80000000      49.45000000       5.15000000
Si      25.80000000      51.60000000       5.15000000
Si      25.80000000      53.75000000       5.15000000
Si      25.80000000      55.90000000       5.15000000
Si      25.80000000      58.05000000       5.15000000
Si      25.80000000      60.20000000       5.15000000
Si      25.80000000      62.35000000       5.15000000
Si      25.80000000      64.50000000       5.15000000
Si      25.80000000      66.65000000       5.15000000
Si      25.80000000       0.00000000       5.15000000
Si      27.95000000       2.15000000       5.15000000
Si      27.95000000       4.30000000       5.15000000
Si      27.95000000       6.45000000       5.15000000
Si      27.95000000       8.60000000       5.15000000
Si      27.95000000      10.75000000       5.15000000
Si      27.95000000      12.90000000       5.15000000
Si      27.95000000      15.05000000       5.15000000
Si      27.95000000      17.20000000       5.15000000
Si      27.95000000      19.35000000       5.15000000
Si      27.95000000      21.50000000       5.15000000
Si      27.95000000      23.65000000       5.15000000
Si      27.95000000      25.80000000       5.15000000
Si      27.95000000      27.95000000       5.15000000
Si      27.95000000      30.10000000       5.15000000
Si      27.95000000      32.25000000       5.15000000
Si      27.95000000      34.40000000       5.15000000
Si      27.95000000      36.55000000       5.15000000
Si      27.95000000      38.70000000       5.15000000
Si      27.95000000      40.85000000       5.15000000
Si      27.95000000      43.00000000       5.15000000
Si      27.95000000      45.15000000       5.15000000
Si      27.95000000      47.30000000       5.15000000
Si      27.95000000      49.45000000       5.15000000
Si      27.95000000      51.60000000       5.15000000
Si      27.95000000      53.75000000       5.15000000
Si      27.95000000      55.90000000       5.15000000
Si      27.95000000      58.05000000       5.15000000
Si      27.95000000      60.20000000       5.15000000
Si      27.95000000      62.35000000       5.15000000
Si      27.95000000      64.50000000       5.15000000
Si      27.95000000      66.65000000       5.15000000
Si      27.95000000       0.00000000       5.15000000
Si      30.10000000       2.15000000       5.15000000
Si      30.10000000       4.30000000       5.15000000
Si      30.10000000       6.45000000       5.15000000
Si      30.10000000       8.60000000       5.15000000
Si      30.10000000      10.75000000       5.15000000
Si      30.10000000      12.90000000       5.15000000
Si      30.10000000      15.05000000       5.15000000
Si      30.10000000      17.20000000       5.15000000
Si      30.10000000      19.35000000       5.15000000
Si      30.10000000      21.50000000       5.15000000
Si      30.10000000      23.65000000       5.15000000
Si      30.10000000      25.80000000       5.15000000
Si      30.10000000      27.95000000       5.15000000
Si      30.10000000      30.10000000       5.15000000
Si      30.10000000      32.25000000       5.15000000
Si      30.10000000      34.40000000       5.15000000
Si      30.10000000      36.55000000       5.15000000
Si      30.10000000      38.70000000       5.15000000
Si      30.10000000      40.85000000       5.15000000
Si      30.10000000      43.00000000       5.15000000
Si      30.10000000      45.15000000       5.15000000
Si      30.10000000      47.30000000       5.15000000
Si      30.10000000      49.45000000       5.15000000
Si      30.10000000      51.60000000       5.15000000
Si      30.10000000      53.75000000       5.15000000
Si      30.10000000      55.90000000       5.15000000
Si      30.10000000      58.05000000       5.15000000
Si      30.10000000      60.20000000       5.15000000
Si      30.10000000      62.35000000       5.15000000
Si      30.10000000      64.50000000       5.15000000
Si      30.10000000      66.65000000       5.15000000
Si      30.10000000       0.00000000       5.15000000
Si      32.25000000       2.15000000       5.15000000
Si      32.25000000       4.30000000       5.15000000
Si      32.25000000       6.45000000       5.15000000
Si      32.25000000       8.60000000       5.15000000
Si      32.25000000      10.75000000       5.15000000
Si      32.25000000      12.90000000       5.15000000
Si      32.25000000      15.05000000       5.15000000
Si      32.25000000      17.20000000       5.15000000
Si      32.25000000      19.35000000       5.15000000
Si      32.25000000      21.50000000       5.15000000
Si      32.25000000      23.65000000       5.15000000
Si      32.25000000      25.80000000       5.15000000
Si      32.25000000      27.95000000       5.15000000
Si      32.25000000      30.10000000       5.15000000
Si      32.25000000      32.25000000       5.15000000
Si      32.25000000      34.40000000       5.15000000
Si      32.25000000      36.55000000       5.15000000
Si      32.25000000      38.70000000       5.15000000
Si      32.25000000      40.85000000       5.15000000
Si      32.25000000      43.00000000       5.15000000
Si      32.25000000      45.15000000       5.15000000
Si      32.25000000      47.30000000       5.15000000
Si      32.25000000      49.45000000       5.15000000
Si      32.25000000      51.60000000       5.15000000
Si      32.25000000      53.75000000       5.15000000
Si      32.25000000      55.90000000       5.15000000
Si      32.25000000      58.05000000       5.15000000
Si      32.25000000      60.20000000       5.15000000
Si      32.25000000      62.35000000       5.15000000
Si      32.25000000      64.50000000       5.15000000
Si      32.25000000      66.65000000       5.15000000
Si      32.25000000       0.00000000       5.15000000
Si      34.40000000       2.15000000       5.15000000
Si      34.40000000       4.30000000       5.15000000
Si      34.40000000       6.45000000       5.15000000
Si      34.40000000       8.60000000       5.15000000
Si      34.40000000      10.75000000       5.15000000
Si      34.40000000      12.90000000       5.15000000
Si      34.40000000      15.05000000       5.15000000
Si      34.40000000      17.20000000       5.15000000
Si      34.40000000      19.35000000       5.15000000
Si      34.40000000      21.50000000       5.15000000
Si      34.40000000      23.65000000       5.15000000
Si      34.40000000      25.80000000       5.15000000
Si      34.40000000      27.95000000       5.15000000
Si      34.40000000      30.10000000       5.15000000
Si      34.40000000      32.25000000       5.15000000
Si      34.40000000      34.40000000       5.15000000
Si      34.40000000      36.55000000       5.15000000
Si      34.40000000      38.70000000       5.15000000
Si      34.40000000      40.85000000       5.15000000
Si      34.40000000      43.00000000       5.15000000
Si      34.40000000      45.15000000       5.15000000
Si      34.40000000      47.30000000       5.15000000
Si      34.40000000      49.45000000       5.15000000
Si      34.40000000      51.60000000       5.15000000
Si      34.40000000      53.75000000       5.15000000
Si      34.40000000      55.90000000       5.15000000
Si      34.40000000      58.05000000       5.15000000
Si      34.40000000      60.20000000       5.15000000
Si      34.40000000      62.35000000       5.15000000
Si      34.40000000      64.50000000       5.15000000
Si      34.40000000      66.65000000       5.15000000
Si      34.40000000       0.00000000       5.15000000
Si      36.55000000       2.15000000       5.15000000
Si      36.55000000       4.30000000       5.15000000
Si      36.55000000       6.45000000       5.15000000
Si      36.55000000       8.60000000       5.15000000
Si      36.55000000      10.75000000       5.15000000
Si      36.55000000      12.90000000       5.15000000
Si      36.55000000      15.05000000       5.15000000
Si      36.55000000      17.20000000       5.15000000
Si      36.55000000      19.35000000       5.15000000
Si      36.55000000      21.50000000       5.15000000
Si      36.55000000      23.65000000       5.15000000
Si      36.55000000      25.80000000       5.15000000
Si      36.55000000      27.95000000       5.15000000
Si      36.55000000      30.10000000       5.15000000
Si      36.55000000      32.25000000       5.15000000
Si      36.55000000      34.40000000       5.15000000
Si      36.55000000      36.55000000       5.15000000
Si      36.55000000      38.70000000       5.15000000
Si      36.55000000      40.85000000       5.15000000
Si      36.55000000      43.00000000       5.15000000
Si      36.55000000      45.15000000       5.15000000
Si      36.55000000      47.30000000       5.15000000
Si      36.55000000      49.45000000       5.15000000
Si      36.55000000      51.60000000       5.15000000
Si      36.55000000      53.75000000       5.15000000
Si      36.55000000      55.90000000       5.15000000
Si      36.55000000      58.05000000       5.15000000
Si      36.55000000      60.20000000       5.15000000
Si      36.55000000      62.35000000       5.15000000
Si      36.55000000      64.50000000       5.15000000
Si      36.55000000      66.65000000       5.15000000
Si      36.55000000       0.00000000       5.15000000
Si      38.70000000       2.15000000       5.15000000
Si      38.70000000       4.30000000       5.15000000
Si      38.70000000       6.45000000       5.15000000
Si      38.70000000       8.60000000       5.15000000
Si      38.70000000      10.75000000       5.15000000
Si      38.70000000      12.90000000       5.15000000
Si      38.70000000      15.05000000       5.15000000
Si      38.70000000      17.20000000       5.15000000
Si      38.70000000      19.35000000       5.15000000
Si      38.70000000      21.50000000       5.15000000
Si      38.70000000      23.65000000       5.15000000
Si      38.70000000      25.80000000       5.15000000
Si      38.70000000      27.95000000       5.15000000
Si      38.70000000      30.10000000       5.15000000
Si      38.70000000      32.25000000       5.15000000
Si      38.70000000      34.40000000       5.15000000
Si      38.70000000      36.55000000       5.15000000
Si      38.70000000      38.70000000       5.15000000
Si      38.70000000      40.85000000       5.15000000
Si      38.70000000      43.00000000       5.15000000
Si      38.70000000      45.15000000       5.15000000
Si      38.70000000      47.30000000       5.15000000
Si      38.70000000      49.45000000       5.15000000
Si      38.70000000      51.60000000       5.15000000
Si      38.70000000      53.75000000       5.15000000
Si      38.70000000      55.90000000       5.15000000
Si      38.70000000      58.05000000       5.15000000
Si      38.70000000      60.20000000       5.15000000
Si      38.70000000      62.35000000       5.15000000
Si      38.70000000      64.50000000       5.15000000
Si      38.70000000      66.65000000       5.15000000
Si      38.70000000       0.00000000       5.15000000
Si      40.85000000       2.15000000       5.15000000
Si      40.85000000       4.30000000       5.15000000
Si      40.85000000       6.45000000       5.15000000
Si      40.85000000       8.60000000       5.15000000
Si      40.85000000      10.75000000       5.15000000
Si      40.85000000      12.90000000       5.15000000
Si      40.85000000      15.05000000       5.15000000
Si      40.85000000      17.20000000       5.15000000
Si      40.85000000      19.35000000       5.15000000
Si      40.85000000      21.50000000       5.15000000
Si      40.85000000      23.65000000       5.15000000
Si      40.85000000      25.80000000       5.15000000
Si      40.85000000      27.95000000       5.15000000
Si      40.85000000      30.10000000       5.15000000
Si      40.85000000      32.25000000       5.15000000
Si      40.85000000      34.40000000       5.15000000
Si      40.85000000      36.55000000       5.15000000
Si      40.85000000      38.70000000       5.15000000
Si      40.85000000      40.85000000       5.15000000
Si      40.85000000      43.00000000       5.15000000
Si      40.85000000      45.15000000       5.15000000
Si      40.85000000      47.30000000       5.15000000
Si      40.85000000      49.45000000       5.15000000
Si      40.85000000      51.60000000       5.15000000
Si      40.85000000      53.75000000       5.15000000
Si      40.85000000      55.90000000       5.15000000
Si      40.85000000      58.05000000       5.15000000
Si      40.85000000      60.20000000       5.15000000
Si      40.85000000      62.35000000       5.15000000
Si      40.85000000      64.50000000       5.15000000
Si      40.85000000      66.65000000       5.15000000
Si      40.85000000       0.00000000       5.15000000
Si      43.00000000       2.15000000       5.15000000
Si      43.00000000       4.30000000       5.15000000
Si      43.00000000       6.45000000       5.15000000
Si      43.00000000       8.60000000       5.15000000
Si      43.00000000      10.75000000       5.15000000
Si      43.00000000      12.90000000       5.15000000
Si      43.00000000      15.05000000       5.15000000
Si      43.00000000      17.20000000       5.15000000
Si      43.00000000      19.35000000       5.15000000
Si      43.00000000      21.50000000       5.15000000
Si      43.00000000      23.65000000       5.15000000
Si      43.00000000      25.80000000       5.15000000
Si      43.00000000      27.95000000       5.15000000
Si      43.00000000      30.10000000       5.15000000
Si      43.00000000      32.25000000       5.15000000
Si      43.00000000      34.40000000       5.15000000
Si      43.00000000      36.55000000       5.15000000
Si      43.00000000      38.70000000       5.15000000
Si      43.00000000      40.85000000       5.15000000
Si      43.00000000      43.00000000       5.15000000
Si      43.00000000      45.15000000       5.15000000
Si      43.00000000      47.30000000       5.15000000
Si      43.00000000      49.45000000       5.15000000
Si      43.00000000      51.60000000       5.15000000
Si      43.00000000      53.75000000       5.15000000
Si      43.00000000      55.90000000       5.15000000
Si      43.00000000      58.05000000       5.15000000
Si      43.00000000      60.20000000       5.15000000
Si      43.00000000      62.35000000       5.15000000
Si      43.00000000      64.50000000       5.15000000
Si      43.00000000      66.65000000       5.15000000
Si      43.00000000       0.00000000       5.15000000
Si      45.15000000       2.15000000       5.15000000
Si      45.15000000       4.30000000       5.15000000
Si      45.15000000       6.45000000       5.15000000
Si      45.15000000       8.60000000       5.15000000
Si      45.15000000      10.75000000       5.15000000
Si      45.15000000      12.90000000       5.15000000
Si      45.15000000      15.05000000       5.15000000
Si      45.15000000      17.20000000       5.15000000
Si      45.15000000      19.35000000       5.15000000
Si      45.15000000      21.50000000       5.15000000
Si      45.15000000      23.65000000       5.15000000
Si      45.15000000      25.80000000       5.15000000
Si      45.15000000      27.95000000       5.15000000
Si      45.15000000      30.10000000       5.15000000
Si      45.15000000      32.25000000       5.15000000
Si      45.15000000      34.40000000       5.15000000
Si      45.15000000      36.55000000       5.15000000
Si      45.15000000      38.70000000       5.15000000
Si      45.15000000      40.85000000       5.15000000
Si      45.15000000      43.00000000       5.15000000
Si      45.15000000      45.15000000       5.15000000
Si      45.15000000      47.30000000       5.15000000
Si      45.15000000      49.45000000       5.15000000
Si      45.15000000      51.60000000       5.15000000
Si      45.15000000      53.75000000       5.15000000
Si      45.15000000      55.90000000       5.15000000
Si      45.15000000      58.05000000       5.15000000
Si      45.15000000      60.20000000       5.15000000
Si      45.15000000      62.35000000       5.15000000
Si      45.15000000      64.50000000       5.15000000
Si      45.15000000      66.65000000       5.15000000
Si      45.15000000       0.00000000       5.15000000
Si      47.30000000       2.15000000       5.15000000
Si      47.30000000       4.30000000       5.15000000
Si      47.30000000       6.45000000       5.15000000
Si      47.30000000       8.60000000       5.15000000
Si      47.30000000      10.75000000       5.15000000
Si      47.30000000      12.90000000       5.15000000
Si      47.30000000      15.05000000       5.15000000
Si      47.30000000      17.20000000       5.15000000
Si      47.30000000      19.35000000       5.15000000
Si      47.30000000      21.50000000       5.15000000
Si      47.30000000      23.65000000       5.15000000
Si      47.30000000      25.80000000       5.15000000
Si      47.30000000      27.95000000       5.15000000
Si      47.30000000      30.10000000       5.15000000
Si      47.30000000      32.25000000       5.15000000
Si      47.30000000      34.40000000       5.15000000
Si      47.30000000      36.55000000       5.15000000
Si      47.30000000      38.70000000       5.15000000
Si      47.30000000      40.85000000       5.15000000
Si      47.30000000      43.00000000       5.15000000
Si      47.30000000      45.15000000       5.15000000
Si      47.30000000      47.30000000       5.15000000
Si      47.30000000      49.45000000       5.15000000
Si      47.30000000      51.60000000       5.15000000
Si      47.30000000      53.75000000       5.15000000
Si      47.30000000      55.90000000       5.15000000
Si      47.30000000      58.05000000       5.15000000
Si      47.30000000      60.20000000       5.15000000
Si      47.30000000      62.35000000       5.15000000
Si      47.30000000      64.50000000       5.15000000
Si      47.30000000      66.65000000       5.15000000
Si      47.30000000       0.00000000       5.15000000
Si      49.45000000       2.15000000       5.15000000
Si      49.45000000       4.30000000       5.15000000
Si      49.45000000       6.45000000       5.15000000
Si      49.45000000       8.60000000       5.15000000
Si      49.45000000      10.75000000       5.15000000
Si      49.45000000      12.90000000       5.15000000
Si      49.45000000      15.05000000       5.15000000
Si      49.45000000      17.20000000       5.15000000
Si      49.45000000      19.35000000       5.15000000
Si      49.45000000      21.50000000       5.15000000
Si      49.45000000      23.65000000       5.15000000
Si      49.45000000      25.80000000       5.15000000
Si      49.45000000      27.95000000       5.15000000
Si      49.45000000      30.10000000       5.15000000
Si      49.45000000      32.25000000       5.15000000
Si      49.45000000      34.40000000       5.15000000
Si      49.45000000      36.55000000       5.15000000
Si      49.45000000      38.70000000       5.15000000
Si      49.45000000      40.85000000       5.15000000
Si      49.45000000      43.00000000       5.15000000
Si      49.45000000      45.15000000       5.15000000
Si      49.45000000      47.30000000       5.15000000
Si      49.45000000      49.45000000       5.15000000
Si      49.45000000      51.60000000       5.15000000
Si      49.45000000      53.75000000       5.15000000
Si      49.45000000      55.90000000       5.15000000
Si      49.45000000      58.05000000       5.15000000
Si      49.45000000      60.20000000       5.15000000
Si      49.45000000      62.35000000       5.15000000
Si      49.45000000      64.50000000       5.15000000
Si      49.45000000      66.65000000       5.15000000
Si      49.45000000       0.00000000       5.15000000
Si      51.60000000       2.15000000       5.15000000
Si      51.60000000       4.30000000       5.15000000
Si      51.60000000       6.45000000       5.15000000
Si      51.60000000       8.60000000       5.15000000
Si      51.60000000      10.75000000       5.15000000
Si      51.60000000      12.90000000       5.15000000
Si      51.60000000      15.05000000       5.15000000
Si      51.60000000      17.20000000       5.15000000
Si      51.60000000      19.35000000       5.15000000
Si      51.60000000      21.50000000       5.15000000
Si      51.60000000      23.65000000       5.15000000
Si      51.60000000      25.80000000       5.15000000
Si      51.60000000      27.95000000       5.15000000
Si      51.60000000      30.10000000       5.15000000
Si      51.60000000      32.25000000       5.15000000
Si      51.60000000      34.40000000       5.15000000
Si      51.60000000      36.55000000       5.15000000
Si      51.60000000      38.70000000       5.15000000
Si      51.60000000      40.85000000       5.15000000
Si      51.60000000      43.00000000       5.15000000
Si      51.60000000      45.15000000       5.15000000
Si      51.60000000      47.30000000       5.15000000
Si      51.60000000      49.45000000       5.15000000
Si      51.60000000      51.60000000       5.15000000
Si      51.60000000      53.75000000       5.15000000
Si      51.60000000      55.90000000       5.15000000
Si      51.60000000      58.05000000       5.15000000
Si      51.60000000      60.20000000       5.15000000
Si      51.60000000      62.35000000       5.15000000
Si      51.60000000      64.50000000       5.15000000
Si      51.60000000      66.65000000       5.15000000
Si      51.60000000       0.00000000       5.15000000
Si      53.75000000       2.15000000       5.15000000
Si      53.75000000       4.30000000       5.15000000
Si      53.75000000       6.45000000       5.15000000
Si      53.75000000       8.60000000       5.15000000
Si      53.75000000      10.75000000       5.15000000
Si      53.75000000      12.90000000       5.15000000
Si      53.75000000      15.05000000       5.15000000
Si      53.75000000      17.20000000       5.15000000
Si      53.75000000      19.35000000       5.15000000
Si      53.75000000      21.50000000       5.15000000
Si      53.75000000      23.65000000       5.15000000
Si      53.75000000      25.80000000       5.15000000
Si      53.75000000      27.95000000       5.15000000
Si      53.75000000      30.10000000       5.15000000
Si      53.75000000      32.25000000       5.15000000
Si      53.75000000      34.40000000       5.15000000
Si      53.75000000      36.55000000       5.15000000
Si      53.75000000      38.70000000       5.15000000
Si      53.75000000      40.85000000       5.15000000
Si      53.75000000      43.00000000       5.15000000
Si      53.75000000      45.15000000       5.15000000
Si      53.75000000      47.30000000       5.15000000
Si      53.75000000      49.45000000       5.15000000
Si      53.75000000      51.60000000       5.15000000
Si      53.75000000      53.75000000       5.15000000
Si      53.75000000      55.90000000       5.15000000
Si      53.75000000      58.05000000       5.15000000
Si      53.75000000      60.20000000       5.15000000
Si      53.75000000      62.35000000       5.15000000
Si      53.75000000      64.50000000       5.15000000
Si      53.75000000      66.65000000       5.15000000
Si      53.75000000       0.00000000       5.15000000
Si      55.90000000       2.15000000       5.15000000
Si      55.90000000       4.30000000       5.15000000
Si      55.90000000       6.45000000       5.15000000
Si      55.90000000       8.60000000       5.15000000
Si      55.90000000      10.75000000       5.15000000
Si      55.90000000      12.90000000       5.15000000
Si      55.90000000      15.05000000       5.15000000
Si      55.90000000      17.20000000       5.15000000
Si      55.90000000      19.35000000       5.15000000
Si      55.90000000      21.50000000       5.15000000
Si      55.90000000      23.65000000       5.15000000
Si      55.90000000      25.80000000       5.15000000
Si      55.90000000      27.95000000       5.15000000
Si      55.90000000      30.10000000       5.15000000
Si      55.90000000      32.25000000       5.15000000
Si      55.90000000      34.40000000       5.15000000
Si      55.90000000      36.55000000       5.15000000
Si      55.90000000      38.70000000       5.15000000
Si      55.90000000      40.85000000       5.15000000
Si      55.90000000      43.00000000       5.15000000
Si      55.90000000      45.15000000       5.15000000
Si      55.90000000      47.30000000       5.15000000
Si      55.90000000      49.45000000       5.15000000
Si      55.90000000      51.60000000       5.15000000
Si      55.90000000      53.75000000       5.15000000
Si      55.90000000      55.90000000       5.15000000
Si      55.90000000      58.05000000       5.15000000
Si      55.90000000      60.20000000       5.15000000
Si      55.90000000      62.35000000       5.15000000
Si      55.90000000      64.50000000       5.15000000
Si      55.90000000      66.65000000       5.15000000
Si      55.90000000       0.00000000       5.15000000
Si      58.05000000       2.15000000       5.15000000
Si      58.05000000       4.30000000       5.15000000
Si      58.05000000       6.45000000       5.15000000
Si      58.05000000       8.60000000       5.15000000
Si      58.05000000      10.75000000       5.15000000
Si      58.05000000      12.90000000       5.15000000
Si      58.05000000      15.05000000       5.15000000
Si      58.05000000      17.20000000       5.15000000
Si      58.05000000      19.35000000       5.15000000
Si      58.05000000      21.50000000       5.15000000
Si      58.05000000      23.65000000       5.15000000
Si      58.05000000      25.80000000       5.15000000
Si      58.05000000      27.95000000       5.15000000
Si      58.05000000      30.10000000       5.15000000
Si      58.05000000      32.25000000       5.15000000
Si      58.05000000      34.40000000       5.15000000
Si      58.05000000      36.55000000       5.15000000
Si      58.05000000      38.70000000       5.15000000
Si      58.05000000      40.85000000       5.15000000
Si      58.05000000      43.00000000       5.15000000
Si      58.05000000      45.15000000       5.15000000
Si      58.05000000      47.30000000       5.15000000
Si      58.05000000      49.45000000       5.15000000
Si      58.05000000      51.60000000       5.15000000
Si      58.05000000      53.75000000       5.15000000
Si      58.05000000      55.90000000       5.15000000
Si      58.05000000      58.05000000       5.15000000
Si      58.05000000      60.20000000       5.15000000
Si      58.05000000      62.35000000       5.15000000
Si      58.05000000      64.50000000       5.15000000
Si      58.05000000      66.65000000       5.15000000
Si      58.05000000       0.00000000       5.15000000
Si      60.20000000       2.15000000       5.15000000
Si      60.20000000       4.30000000       5.15000000
Si      60.20000000       6.45000000       5.15000000
Si      60.20000000       8.60000000       5.15000000
Si      60.20000000      10.75000000       5.15000000
Si      60.20000000      12.90000000       5.15000000
Si      60.20000000      15.05000000       5.15000000
Si      60.20000000      17.20000000       5.15000000
Si      60.20000000      19.35000000       5.15000000
Si      60.20000000      21.50000000       5.15000000
Si      60.20000000      23.65000000       5.15000000
Si      60.20000000      25.80000000       5.15000000
Si      60.20000000      27.95000000       5.15000000
Si      60.20000000      30.10000000       5.15000000
Si      60.20000000      32.25000000       5.15000000
Si      60.20000000      34.40000000       5.15000000
Si      60.20000000      36.55000000       5.15000000
Si      60.20000000      38.70000000       5.15000000
Si      60.20000000      40.85000000       5.15000000
Si      60.20000000      43.00000000       5.15000000
Si      60.20000000      45.15000000       5.15000000
Si      60.20000000      47.30000000       5.15000000
Si      60.20000000      49.45000000       5.15000000
Si      60.20000000      51.60000000       5.15000000
Si      60.20000000      53.75000000       5.15000000
Si      60.20000000      55.90000000       5.15000000
Si      60.20000000      58.05000000       5.15000000
Si      60.20000000      60.20000000       5.15000000
Si      60.20000000      62.35000000       5.15000000
Si      60.20000000      64.50000000       5.15000000
Si      60.20000000      66.65000000       5.15000000
Si      60.20000000       0.00000000       5.15000000
Si      62.35000000       2.15000000       5.15000000
Si      62.35000000       4.30000000       5.15000000
Si      62.35000000       6.45000000       5.15000000
Si      62.35000000       8.60000000       5.15000000
Si      62.35000000      10.75000000       5.15000000
Si      62.35000000      12.90000000       5.15000000
Si      62.35000000      15.05000000       5.15000000
Si      62.35000000      17.20000000       5.15000000
Si      62.35000000      19.35000000       5.15000000
Si      62.35000000      21.50000000       5.15000000
Si      62.35000000      23.65000000       5.15000000
Si      62.35000000      25.80000000       5.15000000
Si      62.35000000      27.95000000       5.15000000
Si      62.35000000      30.10000000       5.15000000
Si      62.35000000      32.25000000       5.15000000
Si      62.35000000      34.40000000       5.15000000
Si      62.35000000      36.55000000       5.15000000
Si      62.35000000      38.70000000       5.15000000
Si      62.35000000      40.85000000       5.15000000
Si      62.35000000      43.00000000       5.15000000
Si      62.35000000      45.15000000       5.15000000
Si      62.35000000      47.30000000       5.15000000
Si      62.35000000      49.45000000       5.15000000
Si      62.35000000      51.60000000       5.15000000
Si      62.35000000      53.75000000       5.15000000
Si      62.35000000      55.90000000       5.15000000
Si      62.35000000      58.05000000       5.15000000
Si      62.35000000      60.20000000       5.15000000
Si      62.35000000      62.35000000       5.15000000
Si      62.35000000      64.50000000       5.15000000
Si      62.35000000      66.65000000       5.15000000
Si      62.35000000       0.00000000       5.15000000
Si      64.50000000       2.15000000       5.15000000
Si      64.50000000       4.30000000       5.15000000
Si      64.50000000       6.45000000       5.15000000
Si      64.50000000       8.60000000       5.15000000
Si      64.50000000      10.75000000       5.15000000
Si      64.50000000      12.90000000       5.15000000
Si      64.50000000      15.05000000       5.15000000
Si      64.50000000      17.20000000       5.15000000
Si      64.50000000      19.35000000       5.15000000
Si      64.50000000      21.50000000       5.15000000
Si      64.50000000      23.65000000       5.15000000
Si      64.50000000      25.80000000       5.15000000
Si      64.50000000      27.95000000       5.15000000
Si      64.50000000      30.10000000       5.15000000
Si      64.50000000      32.25000000       5.15000000
Si      64.50000000      34.40000000       5.15000000
Si      64.50000000      36.55000000       5.15000000
Si      64.50000000      38.70000000       5.15000000
Si      64.50000000      40.85000000       5.15000000
Si      64.50000000      43.00000000       5.15000000
Si      64.50000000      45.15000000       5.15000000
Si      64.50000000      47.30000000       5.15000000
Si      64.50000000      49.45000000       5.15000000
Si      64.50000000      51.60000000       5.15000000
Si      64.50000000      53.75000000       5.15000000
Si      64.50000000      55.90000000       5.15000000
Si      64.50000000      58.05000000       5.15000000
Si      64.50000000      60.20000000       5.15000000
Si      64.50000000      62.35000000       5.15000000
Si      64.50000000      64.50000000       5.15000000
Si      64.50000000      66.65000000       5.15000000
Si      64.50000000       0.00000000       5.15000000
Si      66.65000000       2.15000000       5.15000000
Si      66.65000000       4.30000000       5.15000000
Si      66.65000000       6.45000000       5.15000000
Si      66.65000000       8.60000000       5.15000000
Si      66.65000000      10.75000000       5.15000000
Si      66.65000000      12.90000000       5.15000000
Si      66.65000000      15.05000000       5.15000000
Si      66.65000000      17.20000000       5.15000000
Si      66.65000000      19.35000000       5.15000000
Si      66.65000000      21.50000000       5.15000000
Si      66.65000000      23.65000000       5.15000000
Si      66.65000000      25.80000000       5.15000000
Si      66.65000000      27.95000000       5.15000000
Si      66.65000000      30.10000000       5.15000000
Si      66.65000000      32.25000000       5.15000000
Si      66.65000000      34.40000000       5.15000000
Si      66.65000000      36.55000000       5.15000000
Si      66.65000000      38.70000000       5.15000000
Si      66.65000000      40.85000000       5.15000000
Si      66.65000000      43.00000000       5.15000000
Si      66.65000000      45.15000000       5.15000000
Si      66.65000000      47.30000000       5.15000000
Si      66.65000000      49.45000000       5.15000000
Si      66.65000000      51.60000000       5.15000000
Si      66.65000000      53.75000000       5.15000000
Si      66.65000000      55.90000000       5.15000000
Si      66.65000000      58.05000000       5.15000000
Si      66.65000000      60.20000000       5.15000000
Si      66.65000000      62.35000000       5.15000000
Si      66.65000000      64.50000000       5.15000000
Si      66.65000000      66.65000000       5.15000000
Si      66.65000000       0.00000000       5.15000000
Si       0.00000000       2.15000000       5.15000000
Si       0.00000000       4.30000000       5.15000000
Si       0.00000000       6.45000000       5.15000000
Si       0.00000000       8.60000000       5.15000000
Si       0.00000000      10.75000000       5.15000000
Si       0.00000000      12.90000000       5.15000000
Si       0.00000000      15.05000000       5.15000000
Si       0.00000000      17.20000000       5.15000000
Si       0.00000000      19.35000000       5.15000000
Si       0.00000000      21.50000000       5.15000000
Si       0.00000000      23.65000000       5.15000000
Si       0.00000000      25.80000000       5.15000000
Si       0.00000000      27.95000000       5.15000000
Si       0.00000000      30.10000000       5.15000000
Si       0.00000000      32.25000000       5.15000000
Si       0.00000000      34.40000000       5.15000000
Si       0.00000000      36.55000000       5.15000000
Si       0.00000000      38.70000000       5.15000000
Si       0.00000000      40.85000000       5.15000000
Si       0.00000000      43.00000000       5.15000000
Si       0.00000000      45.15000000       5.15000000
Si       0.00000000      47.30000000       5.15000000
Si       0.00000000      49.45000000       5.15000000
Si       0.00000000      51.60000000       5.15000000
Si       0.00000000      53.75000000       5.15000000
Si       0.00000000      55.90000000       5.15000000
Si       0.00000000      58.05000000       5.15000000
Si       0.00000000      60.20000000       5.15000000
Si       0.00000000      62.35000000       5.15000000
Si       0.00000000      64.50000000       5.15000000
Si       0.00000000      66.65000000       5.15000000
Si       0.00000000       0.00000000       5.15000000
Si       1.07500000       1.07500000       7.30000000
Si       1.07500000       3.22500000       7.30000000
Si       1.07500000       5.37500000       7.30000000
Si       1.07500000       7.52500000       7.30000000
Si       1.07500000       9.67500000       7.30000000
Si       1.07500000      11.82500000       7.30000000
Si       1.07500000      13.97500000       7.30000000
Si       1.07500000      16.12500000       7.30000000
Si       1.07500000      18.27500000       7.30000000
Si       1.07500000      20.42500000       7.30000000
Si       1.07500000      22.57500000       7.30000000
Si       1.07500000      24.72500000       7.30000000
Si       1.07500000      26.87500000       7.30000000
Si       1.07500000      29.02500000       7.30000000
Si       1.07500000      31.17500000       7.30000000
Si       1.07500000      33.32500000       7.30000000
Si       1.07500000      35.47500000       7.30000000
Si       1.07500000      37.62500000       7.30000000
Si       1.07500000      39.77500000       7.30000000
Si       1.07500000      41.92500000       7.30000000
Si       1.07500000      44.07500000       7.30000000
Si       1.07500000      46.22500000       7.30000000
Si       1.07500000      48.37500000       7.30000000
Si       1.07500000      50.52500000       7.30000000
Si       1.07500000      52.67500000       7.30000000
Si       1.07500000      54.82500000       7.30000000
Si       1.07500000      56.97500000       7.30000000
Si       1.07500000      59.12500000       7.30000000
Si       1.07500000      61.27500000       7.30000000
Si       1.07500000      63.42500000       7.30000000
Si       1.07500000      65.57500000       7.30000000
Si       1.07500000      67.72500000       7.30000000
Si       3.22500000       1.07500000       7.30000000
Si       3.22500000       3.22500000       7.30000000
Si       3.22500000       5.37500000       7.30000000
Si       3.22500000       7.52500000       7.30000000
Si       3.22500000       9.67500000       7.30000000
Si       3.22500000      11.82500000       7.30000000
Si       3.22500000      13.97500000       7.30000000
Si       3.22500000      16.12500000       7.30000000
Si       3.22500000      18.27500000       7.30000000
Si       3.22500000      20.42500000       7.30000000
Si       3.22500000      22.57500000       7.30000000
Si       3.22500000      24.72500000       7.30000000
Si       3.22500000      26.87500000       7.30000000
Si       3.22500000      29.02500000       7.30000000
Si       3.22500000      31.17500000       7.30000000
Si       3.22500000      33.32500000       7.30000000
Si       3.22500000      35.47500000       7.30000000
Si       3.22500000      37.62500000       7.30000000
Si       3.22500000      39.77500000       7.30000000
Si       3.22500000      41.92500000       7.30000000
Si       3.22500000      44.07500000       7.30000000
Si       3.22500000      46.22500000       7.30000000
Si       3.22500000      48.37500000       7.30000000
Si       3.22500000      50.52500000       7.30000000
Si       3.22500000      52.67500000       7.30000000
Si       3.22500000      54.82500000       7.30000000
Si       3.22500000      56.97500000       7.30000000
Si       3.22500000      59.12500000       7.30000000
Si       3.22500000      61.27500000       7.30000000
Si       3.22500000      63.42500000       7.30000000
Si       3.22500000      65.57500000       7.30000000
Si       3.22500000      67.72500000       7.30000000
Si       5.37500000       1.07500000       7.30000000
Si       5.37500000       3.22500000       7.30000000
Si       5.37500000       5.37500000       7.30000000
Si       5.37500000       7.52500000       7.30000000
Si       5.37500000       9.67500000       7.30000000
Si       5.37500000      11.82500000       7.30000000
Si       5.37500000      13.97500000       7.30000000
Si       5.37500000      16.12500000       7.30000000
Si       5.37500000      18.27500000       7.30000000
Si       5.37500000      20.42500000       7.30000000
Si       5.37500000      22.57500000       7.30000000
Si       5.37500000      24.72500000       7.30000000
Si       5.37500000      26.87500000       7.30000000
Si       5.37500000      29.02500000       7.30000000
Si       5.37500000      31.17500000       7.30000000
Si       5.37500000      33.32500000       7.30000000
Si       5.37500000      35.47500000       7.30000000
Si       5.37500000      37.62500000       7.30000000
Si       5.37500000      39.77500000       7.30000000
Si       5.37500000      41.92500000       7.30000000
Si       5.37500000      44.07500000       7.30000000
Si       5.37500000      46.22500000       7.30000000
Si       5.37500000      48.37500000       7.30000000
Si       5.37500000      50.52500000       7.30000000
Si       5.37500000      52.67500000       7.30000000
Si       5.37500000      54.82500000       7.30000000
Si       5.37500000      56.97500000       7.30000000
Si       5.37500000      59.12500000       7.30000000
Si       5.37500000      61.27500000       7.30000000
Si       5.37500000      63.42500000       7.30000000
Si       5.37500000      65.57500000       7.30000000
Si       5.37500000      67.72500000       7.30000000
Si       7.52500000       1.07500000       7.30000000
Si       7.52500000       3.22500000       7.30000000
Si       7.52500000       5.37500000       7.30000000
Si       7.52500000       7.52500000       7.30000000
Si       7.52500000       9.67500000       7.30000000
Si       7.52500000      11.82500000       7.30000000
Si       7.52500000      13.97500000       7.30000000
Si       7.52500000      16.12500000       7.30000000
Si       7.52500000      18.27500000       7.30000000
Si       7.52500000      20.42500000       7.30000000
Si       7.52500000      22.57500000       7.30000000
Si       7.52500000      24.72500000       7.30000000
Si       7.52500000      26.87500000       7.30000000
Si       7.52500000      29.02500000       7.30000000
Si       7.52500000      31.17500000       7.30000000
Si       7.52500000      33.32500000       7.30000000
Si       7.52500000      35.47500000       7.30000000
Si       7.52500000      37.62500000       7.30000000
Si       7.52500000      39.77500000       7.30000000
Si       7.52500000      41.92500000       7.30000000
Si       7.52500000      44.07500000       7.30000000
Si       7.52500000      46.22500000       7.30000000
Si       7.52500000      48.37500000       7.30000000
Si       7.52500000      50.52500000       7.30000000
Si       7.52500000      52.67500000       7.30000000
Si       7.52500000      54.82500000       7.30000000
Si       7.52500000      56.97500000       7.30000000
Si       7.52500000      59.12500000       7.30000000
Si       7.52500000      61.27500000       7.30000000
Si       7.52500000      63.42500000       7.30000000
Si       7.52500000      65.57500000       7.30000000
Si       7.52500000      67.72500000       7.30000000
Si       9.67500000       1.07500000       7.30000000
Si       9.67500000       3.22500000       7.30000000
Si       9.67500000       5.37500000       7.30000000
Si       9.67500000       7.52500000       7.30000000
Si       9.67500000       9.67500000       7.30000000
Si       9.67500000      11.82500000       7.30000000
Si       9.67500000      13.97500000       7.30000000
Si       9.67500000      16.12500000       7.30000000
Si       9.67500000      18.27500000       7.30000000
Si       9.67500000      20.42500000       7.30000000
Si       9.67500000      22.57500000       7.30000000
Si       9.67500000      24.72500000       7.30000000
Si       9.67500000      26.87500000       7.30000000
Si       9.67500000      29.02500000       7.30000000
Si       9.67500000      31.17500000       7.30000000
Si       9.67500000      33.32500000       7.30000000
Si       9.67500000      35.47500000       7.30000000
Si       9.67500000      37.62500000       7.30000000
Si       9.67500000      39.77500000       7.30000000
Si       9.67500000      41.92500000       7.30000000
Si       9.67500000      44.07500000       7.30000000
Si       9.67500000      46.22500000       7.30000000
Si       9.67500000      48.37500000       7.30000000
Si       9.67500000      50.52500000       7.30000000
Si       9.67500000      52.67500000       7.30000000
Si       9.67500000      54.82500000       7.30000000
Si       9.67500000      56.97500000       7.30000000
Si       9.67500000      59.12500000       7.30000000
Si       9.67500000      61.27500000       7.30000000
Si       9.67500000      63.42500000       7.30000000
Si       9.67500000      65.57500000       7.30000000
Si       9.67500000      67.72500000       7.30000000
Si      11.82500000       1.07500000       7.30000000
Si      11.82500000       3.22500000       7.30000000
Si      11.82500000       5.37500000       7.30000000
Si      11.82500000       7.52500000       7.30000000
Si      11.82500000       9.67500000       7.30000000
Si      11.82500000      11.82500000       7.30000000
Si      11.82500000      13.97500000       7.30000000
Si      11.82500000      16.12500000       7.30000000
Si      11.82500000      18.27500000       7.30000000
Si      11.82500000      20.42500000       7.30000000
Si      11.82500000      22.57500000       7.30000000
Si      11.82500000      24.72500000       7.30000000
Si      11.82500000      26.87500000       7.30000000
Si      11.82500000      29.02500000       7.30000000
Si      11.82500000      31.17500000       7.30000000
Si      11.82500000      33.32500000       7.30000000
Si      11.82500000      35.47500000       7.30000000
Si      11.82500000      37.62500000       7.30000000
Si      11.82500000      39.77500000       7.30000000
Si      11.82500000      41.92500000       7.30000000
Si      11.82500000      44.07500000       7.30000000
Si      11.82500000      46.22500000       7.30000000
Si      11.82500000      48.37500000       7.30000000
Si      11.82500000      50.52500000       7.30000000
Si      11.82500000      52.67500000       7.30000000
Si      11.82500000      54.82500000       7.30000000
Si      11.82500000      56.97500000       7.30000000
Si      11.82500000      59.12500000       7.30000000
Si      11.82500000      61.27500000       7.30000000
Si      11.82500000      63.42500000       7.30000000
Si      11.82500000      65.57500000       7.30000000
Si      11.82500000      67.72500000       7.30000000
Si      13.97500000       1.07500000       7.30000000
Si      13.97500000       3.22500000       7.30000000
Si      13.97500000       5.37500000       7.30000000
Si      13.97500000       7.52500000       7.30000000
Si      13.97500000       9.67500000       7.30000000
Si      13.97500000      11.82500000       7.30000000
Si      13.97500000      13.97500000       7.30000000
Si      13.97500000      16.12500000       7.30000000
Si      13.97500000      18.27500000       7.30000000
Si      13.97500000      20.42500000       7.30000000
Si      13.97500000      22.57500000       7.30000000
Si      13.97500000      24.72500000       7.30000000
Si      13.97500000      26.87500000       7.30000000
Si      13.97500000      29.02500000       7.30000000
Si      13.97500000      31.17500000       7.30000000
Si      13.97500000      33.32500000       7.30000000
Si      13.97500000      35.47500000       7.30000000
Si      13.97500000      37.62500000       7.30000000
Si      13.97500000      39.77500000       7.30000000
Si      13.97500000      41.92500000       7.30000000
Si      13.97500000      44.07500000       7.30000000
Si      13.97500000      46.22500000       7.30000000
Si      13.97500000      48.37500000       7.30000000
Si      13.97500000      50.52500000       7.30000000
Si      13.97500000      52.67500000       7.30000000
Si      13.97500000      54.82500000       7.30000000
Si      13.97500000      56.97500000       7.30000000
Si      13.97500000      59.12500000       7.30000000
Si      13.97500000      61.27500000       7.30000000
Si      13.97500000      63.42500000       7.30000000
Si      13.97500000      65.57500000       7.30000000
Si      13.97500000      67.72500000       7.30000000
Si      16.12500000       1.07500000       7.30000000
Si      16.12500000       3.22500000       7.30000000
Si      16.12500000       5.37500000       7.30000000
Si      16.12500000       7.52500000       7.30000000
Si      16.12500000       9.67500000       7.30000000
Si      16.12500000      11.82500000       7.30000000
Si      16.12500000      13.97500000       7.30000000
Si      16.12500000      16.12500000       7.30000000
Si      16.12500000      18.27500000       7.30000000
Si      16.12500000      20.42500000       7.30000000
Si      16.12500000      22.57500000       7.30000000
Si      16.12500000      24.72500000       7.30000000
Si      16.12500000      26.87500000       7.30000000
Si      16.12500000      29.02500000       7.30000000
Si      16.12500000      31.17500000       7.30000000
Si      16.12500000      33.32500000       7.30000000
Si      16.12500000      35.47500000       7.30000000
Si      16.12500000      37.62500000       7.30000000
Si      16.12500000      39.77500000       7.30000000
Si      16.12500000      41.92500000       7.30000000
Si      16.12500000      44.07500000       7.30000000
Si      16.12500000      46.22500000       7.30000000
Si      16.12500000      48.37500000       7.30000000
Si      16.12500000      50.52500000       7.30000000
Si      16.12500000      52.67500000       7.30000000
Si      16.12500000      54.82500000       7.30000000
Si      16.12500000      56.97500000       7.30000000
Si      16.12500000      59.12500000       7.30000000
Si      16.12500000      61.27500000       7.30000000
Si      16.12500000      63.42500000       7.30000000
Si      16.12500000      65.57500000       7.30000000
Si      16.12500000      67.72500000       7.30000000
Si      18.27500000       1.07500000       7.30000000
Si      18.27500000       3.22500000       7.30000000
Si      18.27500000       5.37500000       7.30000000
Si      18.27500000       7.52500000       7.30000000
Si      18.27500000       9.67500000       7.30000000
Si      18.27500000      11.82500000       7.30000000
Si      18.27500000      13.97500000       7.30000000
Si      18.27500000      16.12500000       7.30000000
Si      18.27500000      18.27500000       7.30000000
Si      18.27500000      20.42500000       7.30000000
Si      18.27500000      22.57500000       7.30000000
Si      18.27500000      24.72500000       7.30000000
Si      18.27500000      26.87500000       7.30000000
Si      18.27500000      29.02500000       7.30000000
Si      18.27500000      31.17500000       7.30000000
Si      18.27500000      33.32500000       7.30000000
Si      18.27500000      35.47500000       7.30000000
Si      18.27500000      37.62500000       7.30000000
Si      18.27500000      39.77500000       7.30000000
Si      18.27500000      41.92500000       7.30000000
Si      18.27500000      44.07500000       7.30000000
Si      18.27500000      46.22500000       7.30000000
Si      18.27500000      48.37500000       7.30000000
Si      18.27500000      50.52500000       7.30000000
Si      18.27500000      52.67500000       7.30000000
Si      18.27500000      54.82500000       7.30000000
Si      18.27500000      56.97500000       7.30000000
Si      18.27500000      59.12500000       7.30000000
Si      18.27500000      61.27500000       7.30000000
Si      18.27500000      63.42500000       7.30000000
Si      18.27500000      65.57500000       7.30000000
Si      18.27500000      67.72500000       7.30000000
Si      20.42500000       1.07500000       7.30000000
Si      20.42500000       3.22500000       7.30000000
Si      20.42500000       5.37500000       7.30000000
Si      20.42500000       7.52500000       7.30000000
Si      20.42500000       9.67500000       7.30000000
Si      20.42500000      11.82500000       7.30000000
Si      20.42500000      13.97500000       7.30000000
Si      20.42500000      16.12500000       7.30000000
Si      20.42500000      18.27500000       7.30000000
Si      20.42500000      20.42500000       7.30000000
Si      20.42500000      22.57500000       7.30000000
Si      20.42500000      24.72500000       7.30000000
Si      20.42500000      26.87500000       7.30000000
Si      20.42500000      29.02500000       7.30000000
Si      20.42500000      31.17500000       7.30000000
Si      20.42500000      33.32500000       7.30000000
Si      20.42500000      35.47500000       7.30000000
Si      20.42500000      37.62500000       7.30000000
Si      20.42500000      39.77500000       7.30000000
Si      20.42500000      41.92500000       7.30000000
Si      20.42500000      44.07500000       7.30000000
Si      20.42500000      46.22500000       7.30000000
Si      20.42500000      48.37500000       7.30000000
Si      20.42500000      50.52500000       7.30000000
Si      20.42500000      52.67500000       7.30000000
Si      20.42500000      54.82500000       7.30000000
Si      20.42500000      56.97500000       7.30000000
Si      20.42500000      59.12500000       7.30000000
Si      20.42500000      61.27500000       7.30000000
Si      20.42500000      63.42500000       7.30000000
Si      20.42500000      65.57500000       7.30000000
Si      20.42500000      67.72500000       7.30000000
Si      22.57500000       1.07500000       7.30000000
Si      22.57500000       3.22500000       7.30000000
Si      22.57500000       5.37500000       7.30000000
Si      22.57500000       7.52500000       7.30000000
Si      22.57500000       9.67500000       7.30000000
Si      22.57500000      11.82500000       7.30000000
Si      22.57500000      13.97500000       7.30000000
Si      22.57500000      16.12500000       7.30000000
Si      22.57500000      18.27500000       7.30000000
Si      22.57500000      20.42500000       7.30000000
Si      22.57500000      22.57500000       7.30000000
Si      22.57500000      24.72500000       7.30000000
Si      22.57500000      26.87500000       7.30000000
Si      22.57500000      29.02500000       7.30000000
Si      22.57500000      31.17500000       7.30000000
Si      22.57500000      33.32500000       7.30000000
Si      22.57500000      35.47500000       7.30000000
Si      22.57500000      37.62500000       7.30000000
Si      22.57500000      39.77500000       7.30000000
Si      22.57500000      41.92500000       7.30000000
Si      22.57500000      44.07500000       7.30000000
Si      22.57500000      46.22500000       7.30000000
Si      22.57500000      48.37500000       7.30000000
Si      22.57500000      50.52500000       7.30000000
Si      22.57500000      52.67500000       7.30000000
Si      22.57500000      54.82500000       7.30000000
Si      22.57500000      56.97500000       7.30000000
Si      22.57500000      59.12500000       7.30000000
Si      22.57500000      61.27500000       7.30000000
Si      22.57500000      63.42500000       7.30000000
Si      22.57500000      65.57500000       7.30000000
Si      22.57500000      67.72500000       7.30000000
Si      24.72500000       1.07500000       7.30000000
Si      24.72500000       3.22500000       7.30000000
Si      24.72500000       5.37500000       7.30000000
Si      24.72500000       7.52500000       7.30000000
Si      24.72500000       9.67500000       7.30000000
Si      24.72500000      11.82500000       7.30000000
Si      24.72500000      13.97500000       7.30000000
Si      24.72500000      16.12500000       7.30000000
Si      24.72500000      18.27500000       7.30000000
Si      24.72500000      20.42500000       7.30000000
Si      24.72500000      22.57500000       7.30000000
Si      24.72500000      24.72500000       7.30000000
Si      24.72500000      26.87500000       7.30000000
Si      24.72500000      29.02500000       7.30000000
Si      24.72500000      31.17500000       7.30000000
Si      24.72500000      33.32500000       7.30000000
Si      24.72500000      35.47500000       7.30000000
Si      24.72500000      37.62500000       7.30000000
Si      24.72500000      39.77500000       7.30000000
Si      24.72500000      41.92500000       7.30000000
Si      24.72500000      44.07500000       7.30000000
Si      24.72500000      46.22500000       7.30000000
Si      24.72500000      48.37500000       7.30000000
Si      24.72500000      50.52500000       7.30000000
Si      24.72500000      52.67500000       7.30000000
Si      24.72500000      54.82500000       7.30000000
Si      24.72500000      56.97500000       7.30000000
Si      24.72500000      59.12500000       7.30000000
Si      24.72500000      61.27500000       7.30000000
Si      24.72500000      63.42500000       7.30000000
Si      24.72500000      65.57500000       7.30000000
Si      24.72500000      67.72500000       7.30000000
Si      26.87500000       1.07500000       7.30000000
Si      26.87500000       3.22500000       7.30000000
Si      26.87500000       5.37500000       7.30000000
Si      26.87500000       7.52500000       7.30000000
Si      26.87500000       9.67500000       7.30000000
Si      26.87500000      11.82500000       7.30000000
Si      26.87500000      13.97500000       7.30000000
Si      26.87500000      16.12500000       7.30000000
Si      26.87500000      18.27500000       7.30000000
Si      26.87500000      20.42500000       7.30000000
Si      26.87500000      22.57500000       7.30000000
Si      26.87500000      24.72500000       7.30000000
Si      26.87500000      26.87500000       7.30000000
Si      26.87500000      29.02500000       7.30000000
Si      26.87500000      31.17500000       7.30000000
Si      26.87500000      33.32500000       7.30000000
Si      26.87500000      35.47500000       7.30000000
Si      26.87500000      37.62500000       7.30000000
Si      26.87500000      39.77500000       7.30000000
Si      26.87500000      41.92500000       7.30000000
Si      26.87500000      44.07500000       7.30000000
Si      26.87500000      46.22500000       7.30000000
Si      26.87500000      48.37500000       7.30000000
Si      26.87500000      50.52500000       7.30000000
Si      26.87500000      52.67500000       7.30000000
Si      26.87500000      54.82500000       7.30000000
Si      26.87500000      56.97500000       7.30000000
Si      26.87500000      59.12500000       7.30000000
Si      26.87500000      61.27500000       7.30000000
Si      26.87500000      63.42500000       7.30000000
Si      26.87500000      65.57500000       7.30000000
Si      26.87500000      67.72500000       7.30000000
Si      29.02500000       1.07500000       7.30000000
Si      29.02500000       3.22500000       7.30000000
Si      29.02500000       5.37500000       7.30000000
Si      29.02500000       7.52500000       7.30000000
Si      29.02500000       9.67500000       7.30000000
Si      29.02500000      11.82500000       7.30000000
Si      29.02500000      13.97500000       7.30000000
Si      29.02500000      16.12500000       7.30000000
Si      29.02500000      18.27500000       7.30000000
Si      29.02500000      20.42500000       7.30000000
Si      29.02500000      22.57500000       7.30000000
Si      29.02500000      24.72500000       7.30000000
Si      29.02500000      26.87500000       7.30000000
Si      29.02500000      29.02500000       7.30000000
Si      29.02500000      31.17500000       7.30000000
Si      29.02500000      33.32500000       7.30000000
Si      29.02500000      35.47500000       7.30000000
Si      29.02500000      37.62500000       7.30000000
Si      29.02500000      39.77500000       7.30000000
Si      29.02500000      41.92500000       7.30000000
Si      29.02500000      44.07500000       7.30000000
Si      29.02500000      46.22500000       7.30000000
Si      29.02500000      48.37500000       7.30000000
Si      29.02500000      50.52500000       7.30000000
Si      29.02500000      52.67500000       7.30000000
Si      29.02500000      54.82500000       7.30000000
Si      29.02500000      56.97500000       7.30000000
Si      29.02500000      59.12500000       7.30000000
Si      29.02500000      61.27500000       7.30000000
Si      29.02500000      63.42500000       7.30000000
Si      29.02500000      65.57500000       7.30000000
Si      29.02500000      67.72500000       7.30000000
Si      31.17500000       1.07500000       7.30000000
Si      31.17500000       3.22500000       7.30000000
Si      31.17500000       5.37500000       7.30000000
Si      31.17500000       7.52500000       7.30000000
Si      31.17500000       9.67500000       7.30000000
Si      31.17500000      11.82500000       7.30000000
Si      31.17500000      13.97500000       7.30000000
Si      31.17500000      16.12500000       7.30000000
Si      31.17500000      18.27500000       7.30000000
Si      31.17500000      20.42500000       7.30000000
Si      31.17500000      22.57500000       7.30000000
Si      31.17500000      24.72500000       7.30000000
Si      31.17500000      26.87500000       7.30000000
Si      31.17500000      29.02500000       7.30000000
Si      31.17500000      31.17500000       7.30000000
Si      31.17500000      33.32500000       7.30000000
Si      31.17500000      35.47500000       7.30000000
Si      31.17500000      37.62500000       7.30000000
Si      31.17500000      39.77500000       7.30000000
Si      31.17500000      41.92500000       7.30000000
Si      31.17500000      44.07500000       7.30000000
Si      31.17500000      46.22500000       7.30000000
Si      31.17500000      48.37500000       7.30000000
Si      31.17500000      50.52500000       7.30000000
Si      31.17500000      52.67500000       7.30000000
Si      31.17500000      54.82500000       7.30000000
Si      31.17500000      56.97500000       7.30000000
Si      31.17500000      59.12500000       7.30000000
Si      31.17500000      61.27500000       7.30000000
Si      31.17500000      63.42500000       7.30000000
Si      31.17500000      65.57500000       7.30000000
Si      31.17500000      67.72500000       7.30000000
Si      33.32500000       1.07500000       7.30000000
Si      33.32500000       3.22500000       7.30000000
Si      33.32500000       5.37500000       7.30000000
Si      33.32500000       7.52500000       7.30000000
Si      33.32500000       9.67500000       7.30000000
Si      33.32500000      11.82500000       7.30000000
Si      33.32500000      13.97500000       7.30000000
Si      33.32500000      16.12500000       7.30000000
Si      33.32500000      18.27500000       7.30000000
Si      33.32500000      20.42500000       7.30000000
Si      33.32500000      22.57500000       7.30000000
Si      33.32500000      24.72500000       7.30000000
Si      33.32500000      26.87500000       7.30000000
Si      33.32500000      29.02500000       7.30000000
Si      33.32500000      31.17500000       7.30000000
Si      33.32500000      33.32500000       7.30000000
Si      33.32500000      35.47500000       7.30000000
Si      33.32500000      37.62500000       7.30000000
Si      33.32500000      39.77500000       7.30000000
Si      33.32500000      41.92500000       7.30000000
Si      33.32500000      44.07500000       7.30000000
Si      33.32500000      46.22500000       7.30000000
Si      33.32500000      48.37500000       7.30000000
Si      33.32500000      50.52500000       7.30000000
Si      33.32500000      52.67500000       7.30000000
Si      33.32500000      54.82500000       7.30000000
Si      33.32500000      56.97500000       7.30000000
Si      33.32500000      59.12500000       7.30000000
Si      33.32500000      61.27500000       7.30000000
Si      33.32500000      63.42500000       7.30000000
Si      33.32500000      65.57500000       7.30000000
Si      33.32500000      67.72500000       7.30000000
Si      35.47500000       1.07500000       7.30000000
Si      35.47500000       3.22500000       7.30000000
Si      35.47500000       5.37500000       7.30000000
Si      35.47500000       7.52500000       7.30000000
Si      35.47500000       9.67500000       7.30000000
Si      35.47500000      11.82500000       7.30000000
Si      35.47500000      13.97500000       7.30000000
Si      35.47500000      16.12500000       7.30000000
Si      35.47500000      18.27500000       7.30000000
Si      35.47500000      20.42500000       7.30000000
Si      35.47500000      22.57500000       7.30000000
Si      35.47500000      24.72500000       7.30000000
Si      35.47500000      26.87500000       7.30000000
Si      35.47500000      29.02500000       7.30000000
Si      35.47500000      31.17500000       7.30000000
Si      35.47500000      33.32500000       7.30000000
Si      35.47500000      35.47500000       7.30000000
Si      35.47500000      37.62500000       7.30000000
Si      35.47500000      39.77500000       7.30000000
Si      35.47500000      41.92500000       7.30000000
Si      35.47500000      44.07500000       7.30000000
Si      35.47500000      46.22500000       7.30000000
Si      35.47500000      48.37500000       7.30000000
Si      35.47500000      50.52500000       7.30000000
Si      35.47500000      52.67500000       7.30000000
Si      35.47500000      54.82500000       7.30000000
Si      35.47500000      56.97500000       7.30000000
Si      35.47500000      59.12500000       7.30000000
Si      35.47500000      61.27500000       7.30000000
Si      35.47500000      63.42500000       7.30000000
Si      35.47500000      65.57500000       7.30000000
Si      35.47500000      67.72500000       7.30000000
Si      37.62500000       1.07500000       7.30000000
Si      37.62500000       3.22500000       7.30000000
Si      37.62500000       5.37500000       7.30000000
Si      37.62500000       7.52500000       7.30000000
Si      37.62500000       9.67500000       7.30000000
Si      37.62500000      11.82500000       7.30000000
Si      37.62500000      13.97500000       7.30000000
Si      37.62500000      16.12500000       7.30000000
Si      37.62500000      18.27500000       7.30000000
Si      37.62500000      20.42500000       7.30000000
Si      37.62500000      22.57500000       7.30000000
Si      37.62500000      24.72500000       7.30000000
Si      37.62500000      26.87500000       7.30000000
Si      37.62500000      29.02500000       7.30000000
Si      37.62500000      31.17500000       7.30000000
Si      37.62500000      33.32500000       7.30000000
Si      37.62500000      35.47500000       7.30000000
Si      37.62500000      37.62500000       7.30000000
Si      37.62500000      39.77500000       7.30000000
Si      37.62500000      41.92500000       7.30000000
Si      37.62500000      44.07500000       7.30000000
Si      37.62500000      46.22500000       7.30000000
Si      37.62500000      48.37500000       7.30000000
Si      37.62500000      50.52500000       7.30000000
Si      37.62500000      52.67500000       7.30000000
Si      37.62500000      54.82500000       7.30000000
Si      37.62500000      56.97500000       7.30000000
Si      37.62500000      59.12500000       7.30000000
Si      37.62500000      61.27500000       7.30000000
Si      37.62500000      63.42500000       7.30000000
Si      37.62500000      65.57500000       7.30000000
Si      37.62500000      67.72500000       7.30000000
Si      39.77500000       1.07500000       7.30000000
Si      39.77500000       3.22500000       7.30000000
Si      39.77500000       5.37500000       7.30000000
Si      39.77500000       7.52500000       7.30000000
Si      39.77500000       9.67500000       7.30000000
Si      39.77500000      11.82500000       7.30000000
Si      39.77500000      13.97500000       7.30000000
Si      39.77500000      16.12500000       7.30000000
Si      39.77500000      18.27500000       7.30000000
Si      39.77500000      20.42500000       7.30000000
Si      39.77500000      22.57500000       7.30000000
Si      39.77500000      24.72500000       7.30000000
Si      39.77500000      26.87500000       7.30000000
Si      39.77500000      29.02500000       7.30000000
Si      39.77500000      31.17500000       7.30000000
Si      39.77500000      33.32500000       7.30000000
Si      39.77500000      35.47500000       7.30000000
Si      39.77500000      37.62500000       7.30000000
Si      39.77500000      39.77500000       7.30000000
Si      39.77500000      41.92500000       7.30000000
Si      39.77500000      44.07500000       7.30000000
Si      39.77500000      46.22500000       7.30000000
Si      39.77500000      48.37500000       7.30000000
Si      39.77500000      50.52500000       7.30000000
Si      39.77500000      52.67500000       7.30000000
Si      39.77500000      54.82500000       7.30000000
Si      39.77500000      56.97500000       7.30000000
Si      39.77500000      59.12500000       7.30000000
Si      39.77500000      61.27500000       7.30000000
Si      39.77500000      63.42500000       7.30000000
Si      39.77500000      65.57500000       7.30000000
Si      39.77500000      67.72500000       7.30000000
Si      41.92500000       1.07500000       7.30000000
Si      41.92500000       3.22500000       7.30000000
Si      41.92500000       5.37500000       7.30000000
Si      41.92500000       7.52500000       7.30000000
Si      41.92500000       9.67500000       7.30000000
Si      41.92500000      11.82500000       7.30000000
Si      41.92500000      13.97500000       7.30000000
Si      41.92500000      16.12500000       7.30000000
Si      41.92500000      18.27500000       7.30000000
Si      41.92500000      20.42500000       7.30000000
Si      41.92500000      22.57500000       7.30000000
Si      41.92500000      24.72500000       7.30000000
Si      41.92500000      26.87500000       7.30000000
Si      41.92500000      29.02500000       7.30000000
Si      41.92500000      31.17500000       7.30000000
Si      41.92500000      33.32500000       7.30000000
Si      41.92500000      35.47500000       7.30000000
Si      41.92500000      37.62500000       7.30000000
Si      41.92500000      39.77500000       7.30000000
Si      41.92500000      41.92500000       7.30000000
Si      41.92500000      44.07500000       7.30000000
Si      41.92500000      46.22500000       7.30000000
Si      41.92500000      48.37500000       7.30000000
Si      41.92500000      50.52500000       7.30000000
Si      41.92500000      52.67500000       7.30000000
Si      41.92500000      54.82500000       7.30000000
Si      41.92500000      56.97500000       7.30000000
Si      41.92500000      59.12500000       7.30000000
Si      41.92500000      61.27500000       7.30000000
Si      41.92500000      63.42500000       7.30000000
Si      41.92500000      65.57500000       7.30000000
Si      41.92500000      67.72500000       7.30000000
Si      44.07500000       1.07500000       7.30000000
Si      44.07500000       3.22500000       7.30000000
Si      44.07500000       5.37500000       7.30000000
Si      44.07500000       7.52500000       7.30000000
Si      44.07500000       9.67500000       7.30000000
Si      44.07500000      11.82500000       7.30000000
Si      44.07500000      13.97500000       7.30000000
Si      44.07500000      16.12500000       7.30000000
Si      44.07500000      18.27500000       7.30000000
Si      44.07500000      20.42500000       7.30000000
Si      44.07500000      22.57500000       7.30000000
Si      44.07500000      24.72500000       7.30000000
Si      44.07500000      26.87500000       7.30000000
Si      44.07500000      29.02500000       7.30000000
Si      44.07500000      31.17500000       7.30000000
Si      44.07500000      33.32500000       7.30000000
Si      44.07500000      35.47500000       7.30000000
Si      44.07500000      37.62500000       7.30000000
Si      44.07500000      39.77500000       7.30000000
Si      44.07500000      41.92500000       7.30000000
Si      44.07500000      44.07500000       7.30000000
Si      44.07500000      46.22500000       7.30000000
Si      44.07500000      48.37500000       7.30000000
Si      44.07500000      50.52500000       7.30000000
Si      44.07500000      52.67500000       7.30000000
Si      44.07500000      54.82500000       7.30000000
Si      44.07500000      56.97500000       7.30000000
Si      44.07500000      59.12500000       7.30000000
Si      44.07500000      61.27500000       7.30000000
Si      44.07500000      63.42500000       7.30000000
Si      44.07500000      65.57500000       7.30000000
Si      44.07500000      67.72500000       7.30000000
Si      46.22500000       1.07500000       7.30000000
Si      46.22500000       3.22500000       7.30000000
Si      46.22500000       5.37500000       7.30000000
Si      46.22500000       7.52500000       7.30000000
Si      46.22500000       9.67500000       7.30000000
Si      46.22500000      11.82500000       7.30000000
Si      46.22500000      13.97500000       7.30000000
Si      46.22500000      16.12500000       7.30000000
Si      46.22500000      18.27500000       7.30000000
Si      46.22500000      20.42500000       7.30000000
Si      46.22500000      22.57500000       7.30000000
Si      46.22500000      24.72500000       7.30000000
Si      46.22500000      26.87500000       7.30000000
Si      46.22500000      29.02500000       7.30000000
Si      46.22500000      31.17500000       7.30000000
Si      46.22500000      33.32500000       7.30000000
Si      46.22500000      35.47500000       7.30000000
Si      46.22500000      37.62500000       7.30000000
Si      46.22500000      39.77500000       7.30000000
Si      46.22500000      41.92500000       7.30000000
Si      46.22500000      44.07500000       7.30000000
Si      46.22500000      46.22500000       7.30000000
Si      46.22500000      48.37500000       7.30000000
Si      46.22500000      50.52500000       7.30000000
Si      46.22500000      52.67500000       7.30000000
Si      46.22500000      54.82500000       7.30000000
Si      46.22500000      56.97500000       7.30000000
Si      46.22500000      59.12500000       7.30000000
Si      46.22500000      61.27500000       7.30000000
Si      46.22500000      63.42500000       7.30000000
Si      46.22500000      65.57500000       7.30000000
Si      46.22500000      67.72500000       7.30000000
Si      48.37500000       1.07500000       7.30000000
Si      48.37500000       3.22500000       7.30000000
Si      48.37500000       5.37500000       7.30000000
Si      48.37500000       7.52500000       7.30000000
Si      48.37500000       9.67500000       7.30000000
Si      48.37500000      11.82500000       7.30000000
Si      48.37500000      13.97500000       7.30000000
Si      48.37500000      16.12500000       7.30000000
Si      48.37500000      18.27500000       7.30000000
Si      48.37500000      20.42500000       7.30000000
Si      48.37500000      22.57500000       7.30000000
Si      48.37500000      24.72500000       7.30000000
Si      48.37500000      26.87500000       7.30000000
Si      48.37500000      29.02500000       7.30000000
Si      48.37500000      31.17500000       7.30000000
Si      48.37500000      33.32500000       7.30000000
Si      48.37500000      35.47500000       7.30000000
Si      48.37500000      37.62500000       7.30000000
Si      48.37500000      39.77500000       7.30000000
Si      48.37500000      41.92500000       7.30000000
Si      48.37500000      44.07500000       7.30000000
Si      48.37500000      46.22500000       7.30000000
Si      48.37500000      48.37500000       7.30000000
Si      48.37500000      50.52500000       7.30000000
Si      48.37500000      52.67500000       7.30000000
Si      48.37500000      54.82500000       7.30000000
Si      48.37500000      56.97500000       7.30000000
Si      48.37500000      59.12500000       7.30000000
Si      48.37500000      61.27500000       7.30000000
Si      48.37500000      63.42500000       7.30000000
Si      48.37500000      65.57500000       7.30000000
Si      48.37500000      67.72500000       7.30000000
Si      50.52500000       1.07500000       7.30000000
Si      50.52500000       3.22500000       7.30000000
Si      50.52500000       5.37500000       7.30000000
Si      50.52500000       7.52500000       7.30000000
Si      50.52500000       9.67500000       7.30000000
Si      50.52500000      11.82500000       7.30000000
Si      50.52500000      13.97500000       7.30000000
Si      50.52500000      16.12500000       7.30000000
Si      50.52500000      18.27500000       7.30000000
Si      50.52500000      20.42500000       7.30000000
Si      50.52500000      22.57500000       7.30000000
Si      50.52500000      24.72500000       7.30000000
Si      50.52500000      26.87500000       7.30000000
Si      50.52500000      29.02500000       7.30000000
Si      50.52500000      31.17500000       7.30000000
Si      50.52500000      33.32500000       7.30000000
Si      50.52500000      35.47500000       7.30000000
Si      50.52500000      37.62500000       7.30000000
Si      50.52500000      39.77500000       7.30000000
Si      50.52500000      41.92500000       7.30000000
Si      50.52500000      44.07500000       7.30000000
Si      50.52500000      46.22500000       7.30000000
Si      50.52500000      48.37500000       7.30000000
Si      50.52500000      50.52500000       7.30000000
Si      50.52500000      52.67500000       7.30000000
Si      50.52500000      54.82500000       7.30000000
Si      50.52500000      56.97500000       7.30000000
Si      50.52500000      59.12500000       7.30000000
Si      50.52500000      61.27500000       7.30000000
Si      50.52500000      63.42500000       7.30000000
Si      50.52500000      65.57500000       7.30000000
Si      50.52500000      67.72500000       7.30000000
Si      52.67500000       1.07500000       7.30000000
Si      52.67500000       3.22500000       7.30000000
Si      52.67500000       5.37500000       7.30000000
Si      52.67500000       7.52500000       7.30000000
Si      52.67500000       9.67500000       7.30000000
Si      52.67500000      11.82500000       7.30000000
Si      52.67500000      13.97500000       7.30000000
Si      52.67500000      16.12500000       7.30000000
Si      52.67500000      18.27500000       7.30000000
Si      52.67500000      20.42500000       7.30000000
Si      52.67500000      22.57500000       7.30000000
Si      52.67500000      24.72500000       7.30000000
Si      52.67500000      26.87500000       7.30000000
Si      52.67500000      29.02500000       7.30000000
Si      52.67500000      31.17500000       7.30000000
Si      52.67500000      33.32500000       7.30000000
Si      52.67500000      35.47500000       7.30000000
Si      52.67500000      37.62500000       7.30000000
Si      52.67500000      39.77500000       7.30000000
Si      52.67500000      41.92500000       7.30000000
Si      52.67500000      44.07500000       7.30000000
Si      52.67500000      46.22500000       7.30000000
Si      52.67500000      48.37500000       7.30000000
Si      52.67500000      50.52500000       7.30000000
Si      52.67500000      52.67500000       7.30000000
Si      52.67500000      54.82500000       7.30000000
Si      52.67500000      56.97500000       7.30000000
Si      52.67500000      59.12500000       7.30000000
Si      52.67500000      61.27500000       7.30000000
Si      52.67500000      63.42500000       7.30000000
Si      52.67500000      65.57500000       7.30000000
Si      52.67500000      67.72500000       7.30000000
Si      54.82500000       1.07500000       7.30000000
Si      54.82500000       3.22500000       7.30000000
Si      54.82500000       5.37500000       7.30000000
Si      54.82500000       7.52500000       7.30000000
Si      54.82500000       9.67500000       7.30000000
Si      54.82500000      11.82500000       7.30000000
Si      54.82500000      13.97500000       7.30000000
Si      54.82500000      16.12500000       7.30000000
Si      54.82500000      18.27500000       7.30000000
Si      54.82500000      20.42500000       7.30000000
Si      54.82500000      22.57500000       7.30000000
Si      54.82500000      24.72500000       7.30000000
Si      54.82500000      26.87500000       7.30000000
Si      54.82500000      29.02500000       7.30000000
Si      54.82500000      31.17500000       7.30000000
Si      54.82500000      33.32500000       7.30000000
Si      54.82500000      35.47500000       7.30000000
Si      54.82500000      37.62500000       7.30000000
Si      54.82500000      39.77500000       7.30000000
Si      54.82500000      41.92500000       7.30000000
Si      54.82500000      44.07500000       7.30000000
Si      54.82500000      46.22500000       7.30000000
Si      54.82500000      48.37500000       7.30000000
Si      54.82500000      50.52500000       7.30000000
Si      54.82500000      52.67500000       7.30000000
Si      54.82500000      54.82500000       7.30000000
Si      54.82500000      56.97500000       7.30000000
Si      54.82500000      59.12500000       7.30000000
Si      54.82500000      61.27500000       7.30000000
Si      54.82500000      63.42500000       7.30000000
Si      54.82500000      65.57500000       7.30000000
Si      54.82500000      67.72500000       7.30000000
Si      56.97500000       1.07500000       7.30000000
Si      56.97500000       3.22500000       7.30000000
Si      56.97500000       5.37500000       7.30000000
Si      56.97500000       7.52500000       7.30000000
Si      56.97500000       9.67500000       7.30000000
Si      56.97500000      11.82500000       7.30000000
Si      56.97500000      13.97500000       7.30000000
Si      56.97500000      16.12500000       7.30000000
Si      56.97500000      18.27500000       7.30000000
Si      56.97500000      20.42500000       7.30000000
Si      56.97500000      22.57500000       7.30000000
Si      56.97500000      24.72500000       7.30000000
Si      56.97500000      26.87500000       7.30000000
Si      56.97500000      29.02500000       7.30000000
Si      56.97500000      31.17500000       7.30000000
Si      56.97500000      33.32500000       7.30000000
Si      56.97500000      35.47500000       7.30000000
Si      56.97500000      37.62500000       7.30000000
Si      56.97500000      39.77500000       7.30000000
Si      56.97500000      41.92500000       7.30000000
Si      56.97500000      44.07500000       7.30000000
Si      56.97500000      46.22500000       7.30000000
Si      56.97500000      48.37500000       7.30000000
Si      56.97500000      50.52500000       7.30000000
Si      56.97500000      52.67500000       7.30000000
Si      56.97500000      54.82500000       7.30000000
Si      56.97500000      56.97500000       7.30000000
Si      56.97500000      59.12500000       7.30000000
Si      56.97500000      61.27500000       7.30000000
Si      56.97500000      63.42500000       7.30000000
Si      56.97500000      65.57500000       7.30000000
Si      56.97500000      67.72500000       7.30000000
Si      59.12500000       1.07500000       7.30000000
Si      59.12500000       3.22500000       7.30000000
Si      59.12500000       5.37500000       7.30000000
Si      59.12500000       7.52500000       7.30000000
Si      59.12500000       9.67500000       7.30000000
Si      59.12500000      11.82500000       7.30000000
Si      59.12500000      13.97500000       7.30000000
Si      59.12500000      16.12500000       7.30000000
Si      59.12500000      18.27500000       7.30000000
Si      59.12500000      20.42500000       7.30000000
Si      59.12500000      22.57500000       7.30000000
Si      59.12500000      24.72500000       7.30000000
Si      59.12500000      26.87500000       7.30000000
Si      59.12500000      29.02500000       7.30000000
Si      59.12500000      31.17500000       7.30000000
Si      59.12500000      33.32500000       7.30000000
Si      59.12500000      35.47500000       7.30000000
Si      59.12500000      37.62500000       7.30000000
Si      59.12500000      39.77500000       7.30000000
Si      59.12500000      41.92500000       7.30000000
Si      59.12500000      44.07500000       7.30000000
Si      59.12500000      46.22500000       7.30000000
Si      59.12500000      48.37500000       7.30000000
Si      59.12500000      50.52500000       7.30000000
Si      59.12500000      52.67500000       7.30000000
Si      59.12500000      54.82500000       7.30000000
Si      59.12500000      56.97500000       7.30000000
Si      59.12500000      59.12500000       7.30000000
Si      59.12500000      61.27500000       7.30000000
Si      59.12500000      63.42500000       7.30000000
Si      59.12500000      65.57500000       7.30000000
Si      59.12500000      67.72500000       7.30000000
Si      61.27500000       1.07500000       7.30000000
Si      61.27500000       3.22500000       7.30000000
Si      61.27500000       5.37500000       7.30000000
Si      61.27500000       7.52500000       7.30000000
Si      61.27500000       9.67500000       7.30000000
Si      61.27500000      11.82500000       7.30000000
Si      61.27500000      13.97500000       7.30000000
Si      61.27500000      16.12500000       7.30000000
Si      61.27500000      18.27500000       7.30000000
Si      61.27500000      20.42500000       7.30000000
Si      61.27500000      22.57500000       7.30000000
Si      61.27500000      24.72500000       7.30000000
Si      61.27500000      26.87500000       7.30000000
Si      61.27500000      29.02500000       7.30000000
Si      61.27500000      31.17500000       7.30000000
Si      61.27500000      33.32500000       7.30000000
Si      61.27500000      35.47500000       7.30000000
Si      61.27500000      37.62500000       7.30000000
Si      61.27500000      39.77500000       7.30000000
Si      61.27500000      41.92500000       7.30000000
Si      61.27500000      44.07500000       7.30000000
Si      61.27500000      46.22500000       7.30000000
Si      61.27500000      48.37500000       7.30000000
Si      61.27500000      50.52500000       7.30000000
Si      61.27500000      52.67500000       7.30000000
Si      61.27500000      54.82500000       7.30000000
Si      61.27500000      56.97500000       7.30000000
Si      61.27500000      59.12500000       7.30000000
Si      61.27500000      61.27500000       7.30000000
Si      61.27500000      63.42500000       7.30000000
Si      61.27500000      65.57500000       7.30000000
Si      61.27500000      67.72500000       7.30000000
Si      63.42500000       1.07500000       7.30000000
Si      63.42500000       3.22500000       7.30000000
Si      63.42500000       5.37500000       7.30000000
Si      63.42500000       7.52500000       7.30000000
Si      63.42500000       9.67500000       7.30000000
Si      63.42500000      11.82500000       7.30000000
Si      63.42500000      13.97500000       7.30000000
Si      63.42500000      16.12500000       7.30000000
Si      63.42500000      18.27500000       7.30000000
Si      63.42500000      20.42500000       7.30000000
Si      63.42500000      22.57500000       7.30000000
Si      63.42500000      24.72500000       7.30000000
Si      63.42500000      26.87500000       7.30000000
Si      63.42500000      29.02500000       7.30000000
Si      63.42500000      31.17500000       7.30000000
Si      63.42500000      33.32500000       7.30000000
Si      63.42500000      35.47500000       7.30000000
Si      63.42500000      37.62500000       7.30000000
Si      63.42500000      39.77500000       7.30000000
Si      63.42500000      41.92500000       7.30000000
Si      63.42500000      44.07500000       7.30000000
Si      63.42500000      46.22500000       7.30000000
Si      63.42500000      48.37500000       7.30000000
Si      63.42500000      50.52500000       7.30000000
Si      63.42500000      52.67500000       7.30000000
Si      63.42500000      54.82500000       7.30000000
Si      63.42500000      56.97500000       7.30000000
Si      63.42500000      59.12500000       7.30000000
Si      63.42500000      61.27500000       7.30000000
Si      63.42500000      63.42500000       7.30000000
Si      63.42500000      65.57500000       7.30000000
Si      63.42500000      67.72500000       7.30000000
Si      65.57500000       1.07500000       7.30000000
Si      65.57500000       3.22500000       7.30000000
Si      65.57500000       5.37500000       7.30000000
Si      65.57500000       7.52500000       7.30000000
Si      65.57500000       9.67500000       7.30000000
Si      65.57500000      11.82500000       7.30000000
Si      65.57500000      13.97500000       7.30000000
Si      65.57500000      16.12500000       7.30000000
Si      65.57500000      18.27500000       7.30000000
Si      65.57500000      20.42500000       7.30000000
Si      65.57500000      22.57500000       7.30000000
Si      65.57500000      24.72500000       7.30000000
Si      65.57500000      26.87500000       7.30000000
Si      65.57500000      29.02500000       7.30000000
Si      65.57500000      31.17500000       7.30000000
Si      65.57500000      33.32500000       7.30000000
Si      65.57500000      35.47500000       7.30000000
Si      65.57500000      37.62500000       7.30000000
Si      65.57500000      39.77500000       7.30000000
Si      65.57500000      41.92500000       7.30000000
Si      65.57500000      44.07500000       7.30000000
Si      65.57500000      46.22500000       7.30000000
Si      65.57500000      48.37500000       7.30000000
Si      65.57500000      50.52500000       7.30000000
Si      65.57500000      52.67500000       7.30000000
Si      65.57500000      54.82500000       7.30000000
Si      65.57500000      56.97500000       7.30000000
Si      65.57500000      59.12500000       7.30000000
Si      65.57500000      61.27500000       7.30000000
Si      65.57500000      63.42500000       7.30000000
Si      65.57500000      65.57500000       7.30000000
Si      65.57500000      67.72500000       7.30000000
Si      67.72500000       1.07500000       7.30000000
Si      67.72500000       3.22500000       7.30000000
Si      67.72500000       5.37500000       7.30000000
Si      67.72500000       7.52500000       7.30000000
Si      67.72500000       9.67500000       7.30000000
Si      67.72500000      11.82500000       7.30000000
Si      67.72500000      13.97500000       7.30000000
Si      67.72500000      16.12500000       7.30000000
Si      67.72500000      18.27500000       7.30000000
Si      67.72500000      20.42500000       7.30000000
Si      67.72500000      22.57500000       7.30000000
Si      67.72500000      24.72500000       7.30000000
Si      67.72500000      26.87500000       7.30000000
Si      67.72500000      29.02500000       7.30000000
Si      67.72500000      31.17500000       7.30000000
Si      67.72500000      33.32500000       7.30000000
Si      67.72500000      35.47500000       7.30000000
Si      67.72500000      37.62500000       7.30000000
Si      67.72500000      39.77500000       7.30000000
Si      67.72500000      41.92500000       7.30000000
Si      67.72500000      44.07500000       7.30000000
Si      67.72500000      46.22500000       7.30000000
Si      67.72500000      48.37500000       7.30000000
Si      67.72500000      50.52500000       7.30000000
Si      67.72500000      52.67500000       7.30000000
Si      67.72500000      54.82500000       7.30000000
Si      67.72500000      56.97500000       7.30000000
Si      67.72500000      59.12500000       7.30000000
Si      67.72500000      61.27500000       7.30000000
Si      67.72500000      63.42500000       7.30000000
Si      67.72500000      65.57500000       7.30000000
Si      67.72500000      67.72500000       7.30000000
O        0.50000000       0.50000000      10.30000000
H        1.46000000       0.50000000      10.30000000
H        0.26000000       1.43000000      10.30000000
O        0.50000000       3.49130435      10.30000000
H        1.46000000       3.49130435      10.30000000
H        0.26000000       4.42130435      10.30000000
O        0.50000000       6.48260870      10.30000000
H        1.46000000       6.48260870      10.30000000
H        0.26000000       7.41260870      10.30000000
O        0.50000000       9.47391304      10.30000000
H        1.46000000       9.47391304      10.30000000
H        0.26000000      10.40391304      10.30000000
O        0.50000000      12.46521739      10.30000000
H        1.46000000      12.46521739      10.30000000
H        0.26000000      13.39521739      10.30000000
O        0.50000000      15.45652174      10.30000000
H        1.46000000      15.45652174      10.30000000
H        0.26000000      16.38652174      10.30000000
O        0.50000000      18.44782609      10.30000000
H        1.46000000      18.44782609      10.30000000
H        0.26000000      19.37782609      10.30000000
O        0.50000000      21.43913043      10.30000000
H        1.46000000      21.43913043      10.30000000
H        0.26000000      22.36913043      10.30000000
O        0.50000000      24.43043478      10.30000000
H        1.46000000      24.43043478      10.30000000
H        0.26000000      25.36043478      10.30000000
O        0.50000000      27.42173913      10.30000000
H        1.46000000      27.42173913      10.30000000
H        0.26000000      28.35173913      10.30000000
O        0.50000000      30.41304348      10.30000000
H        1.46000000      30.41304348      10.30000000
H        0.26000000      31.34304348      10.30000000
O        0.50000000      33.40434783      10.30000000
H        1.46000000      33.40434783      10.30000000
H        0.26000000      34.33434783      10.30000000
O        0.50000000      36.39565217      10.30000000
H        1.46000000      36.39565217      10.30000000
H        0.26000000      37.32565217      10.30000000
O        0.50000000      39.38695652      10.30000000
H        1.46000000      39.38695652      10.30000000
H        0.26000000      40.31695652      10.30000000
O        0.50000000      42.37826087      10.30000000
H        1.46000000      42.37826087      10.30000000
H        0.26000000      43.30826087      10.30000000
O        0.50000000      45.36956522      10.30000000
H        1.46000000      45.36956522      10.30000000
H        0.26000000      46.29956522      10.30000000
O        0.50000000      48.36086957      10.30000000
H        1.46000000      48.36086957      10.30000000
H        0.26000000      49.29086957      10.30000000
O        0.50000000      51.35217391      10.30000000
H        1.46000000      51.35217391      10.30000000
H        0.26000000      52.28217391      10.30000000
O        0.50000000      54.34347826      10.30000000
H        1.46000000      54.34347826      10.30000000
H        0.26000000      55.27347826      10.30000000
O        0.50000000      57.33478261      10.30000000
H        1.46000000      57.33478261      10.30000000
H        0.26000000      58.26478261      10.30000000
O        0.50000000      60.32608696      10.30000000
H        1.46000000      60.32608696      10.30000000
H        0.26000000      61.25608696      10.30000000
O        0.50000000      63.31739130      10.30000000
H        1.46000000      63.31739130      10.30000000
H        0.26000000      64.24739130      10.30000000
O        0.50000000      66.30869565      10.30000000
H        1.46000000      66.30869565      10.30000000
H        0.26000000      67.23869565      10.30000000
O        3.49130435       0.50000000      10.30000000
H        4.45130435       0.50000000      10.30000000
H        3.25130435       1.43000000      10.30000000
O        3.49130435       3.49130435      10.30000000
H        4.45130435       3.49130435      10.30000000
H        3.25130435       4.42130435      10.30000000
O        3.49130435       6.48260870      10.30000000
H        4.45130435       6.48260870      10.30000000
H        3.25130435       7.41260870      10.30000000
O        3.49130435       9.47391304      10.30000000
H        4.45130435       9.47391304      10.30000000
H        3.25130435      10.40391304      10.30000000
O        3.49130435      12.46521739      10.30000000
H        4.45130435      12.46521739      10.30000000
H        3.25130435      13.39521739      10.30000000
O        3.49130435      15.45652174      10.30000000
H        4.45130435      15.45652174      10.30000000
H        3.25130435      16.38652174      10.30000000
O        3.49130435      18.44782609      10.30000000
H        4.45130435      18.44782609      10.30000000
H        3.25130435      19.37782609      10.30000000
O        3.49130435      21.43913043      10.30000000
H        4.45130435      21.43913043      10.30000000
H        3.25130435      22.36913043      10.30000000
O        3.49130435      24.43043478      10.30000000
H        4.45130435      24.43043478      10.30000000
H        3.25130435      25.36043478      10.30000000
O        3.49130435      27.42173913      10.30000000
H        4.45130435      27.42173913      10.30000000
H        3.25130435      28.35173913      10.30000000
O        3.49130435      30.41304348      10.30000000
H        4.45130435      30.41304348      10.30000000
H        3.25130435      31.34304348      10.30000000
O        3.49130435      33.40434783      10.30000000
H        4.45130435      33.40434783      10.30000000
H        3.25130435      34.33434783      10.30000000
O        3.49130435      36.39565217      10.30000000
H        4.45130435      36.39565217      10.30000000
H        3.25130435      37.32565217      10.30000000
O        3.49130435      39.38695652      10.30000000
H        4.45130435      39.38695652      10.30000000
H        3.25130435      40.31695652      10.30000000
O        3.49130435      42.37826087      10.30000000
H        4.45130435      42.37826087      10.30000000
H        3.25130435      43.30826087      10.30000000
O        3.49130435      45.36956522      10.30000000
H        4.45130435      45.36956522      10.30000000
H        3.25130435      46.29956522      10.30000000
O        3.49130435      48.36086957      10.30000000
H        4.45130435      48.36086957      10.30000000
H        3.25130435      49.29086957      10.30000000
O        3.49130435      51.35217391      10.30000000
H        4.45130435      51.35217391      10.30000000
H        3.25130435      52.28217391      10.30000000
O        3.49130435      54.34347826      10.30000000
H        4.45130435      54.34347826      10.30000000
H        3.25130435      55.27347826      10.30000000
O        3.49130435      57.33478261      10.30000000
H        4.45130435      57.33478261      10.30000000
H        3.25130435      58.26478261      10.30000000
O        3.49130435      60.32608696      10.30000000
H        4.45130435      60.32608696      10.30000000
H        3.25130435      61.25608696      10.30000000
O        3.49130435      63.31739130      10.30000000
H        4.45130435      63.31739130      10.30000000
H        3.25130435      64.24739130      10.30000000
O        3.49130435      66.30869565      10.30000000
H        4.45130435      66.30869565      10.30000000
H        3.25130435      67.23869565      10.30000000
O        6.48260870       0.50000000      10.30000000
H        7.44260870       0.50000000      10.30000000
H        6.24260870       1.43000000      10.30000000
O        6.48260870       3.49130435      10.30000000
H        7.44260870       3.49130435      10.30000000
H        6.24260870       4.42130435      10.30000000
O        6.48260870       6.48260870      10.30000000
H        7.44260870       6.48260870      10.30000000
H        6.24260870       7.41260870      10.30000000
O        6.48260870       9.47391304      10.30000000
H        7.44260870       9.47391304      10.30000000
H        6.24260870      10.40391304      10.30000000
O        6.48260870      12.46521739      10.30000000
H        7.44260870      12.46521739      10.30000000
H        6.24260870      13.39521739      10.30000000
O        6.48260870      15.45652174      10.30000000
H        7.44260870      15.45652174      10.30000000
H        6.24260870      16.38652174      10.30000000
O        6.48260870      18.44782609      10.30000000
H        7.44260870      18.44782609      10.30000000
H        6.24260870      19.37782609      10.30000000
O        6.48260870      21.43913043      10.30000000
H        7.44260870      21.43913043      10.30000000
H        6.24260870      22.36913043      10.30000000
O        6.48260870      24.43043478      10.30000000
H        7.44260870      24.43043478      10.30000000
H        6.24260870      25.36043478      10.30000000
O        6.48260870      27.42173913      10.30000000
H        7.44260870      27.42173913      10.30000000
H        6.24260870      28.35173913      10.30000000
O        6.48260870      30.41304348      10.30000000
H        7.44260870      30.41304348      10.30000000
H        6.24260870      31.34304348      10.30000000
O        6.48260870      33.40434783      10.30000000
H        7.44260870      33.40434783      10.30000000
H        6.24260870      34.33434783      10.30000000
O        6.48260870      36.39565217      10.30000000
H        7.44260870      36.39565217      10.30000000
H        6.24260870      37.32565217      10.30000000
O        6.48260870      39.38695652      10.30000000
H        7.44260870      39.38695652      10.30000000
H        6.24260870      40.31695652      10.30000000
O        6.48260870      42.37826087      10.30000000
H        7.44260870      42.37826087      10.30000000
H        6.24260870      43.30826087      10.30000000
O        6.48260870      45.36956522      10.30000000
H        7.44260870      45.36956522      10.30000000
H        6.24260870      46.29956522      10.30000000
O        6.48260870      48.36086957      10.30000000
H        7.44260870      48.36086957      10.30000000
H        6.24260870      49.29086957      10.30000000
O        6.48260870      51.35217391      10.30000000
H        7.44260870      51.35217391      10.30000000
H        6.24260870      52.28217391      10.30000000
O        6.48260870      54.34347826      10.30000000
H        7.44260870      54.34347826      10.30000000
H        6.24260870      55.27347826      10.30000000
O        6.48260870      57.33478261      10.30000000
H        7.44260870      57.33478261      10.30000000
H        6.24260870      58.26478261      10.30000000
O        6.48260870      60.32608696      10.30000000
H        7.44260870      60.32608696      10.30000000
H        6.24260870      61.25608696      10.30000000
O        6.48260870      63.31739130      10.30000000
H        7.44260870      63.31739130      10.30000000
H        6.24260870      64.24739130      10.30000000
O        6.48260870      66.30869565      10.30000000
H        7.44260870      66.30869565      10.30000000
H        6.24260870      67.23869565      10.30000000
O        9.47391304       0.50000000      10.30000000
H       10.43391304       0.50000000      10.30000000
H        9.23391304       1.43000000      10.30000000
O        9.47391304       3.49130435      10.30000000
H       10.43391304       3.49130435      10.30000000
H        9.23391304       4.42130435      10.30000000
O        9.47391304       6.48260870      10.30000000
H       10.43391304       6.48260870      10.30000000
H        9.23391304       7.41260870      10.30000000
O        9.47391304       9.47391304      10.30000000
H       10.43391304       9.47391304      10.30000000
H        9.23391304      10.40391304      10.30000000
O        9.47391304      12.46521739      10.30000000
H       10.43391304      12.46521739      10.30000000
H        9.23391304      13.39521739      10.30000000
O        9.47391304      15.45652174      10.30000000
H       10.43391304      15.45652174      10.30000000
H        9.23391304      16.38652174      10.30000000
O        9.47391304      18.44782609      10.30000000
H       10.43391304      18.44782609      10.30000000
H        9.23391304      19.37782609      10.30000000
O        9.47391304      21.43913043      10.30000000
H       10.43391304      21.43913043      10.30000000
H        9.23391304      22.36913043      10.30000000
O        9.47391304      24.43043478      10.30000000
H       10.43391304      24.43043478      10.30000000
H        9.23391304      25.36043478      10.30000000
O        9.47391304      27.42173913      10.30000000
H       10.43391304      27.42173913      10.30000000
H        9.23391304      28.35173913      10.30000000
O        9.47391304      30.41304348      10.30000000
H       10.43391304      30.41304348      10.30000000
H        9.23391304      31.34304348      10.30000000
O        9.47391304      33.40434783      10.30000000
H       10.43391304      33.40434783      10.30000000
H        9.23391304      34.33434783      10.30000000
O        9.47391304      36.39565217      10.30000000
H       10.43391304      36.39565217      10.30000000
H        9.23391304      37.32565217      10.30000000
O        9.47391304      39.38695652      10.30000000
H       10.43391304      39.38695652      10.30000000
H        9.23391304      40.31695652      10.30000000
O        9.47391304      42.37826087      10.30000000
H       10.43391304      42.37826087      10.30000000
H        9.23391304      43.30826087      10.30000000
O        9.47391304      45.36956522      10.30000000
H       10.43391304      45.36956522      10.30000000
H        9.23391304      46.29956522      10.30000000
O        9.47391304      48.36086957      10.30000000
H       10.43391304      48.36086957      10.30000000
H        9.23391304      49.29086957      10.30000000
O        9.47391304      51.35217391      10.30000000
H       10.43391304      51.35217391      10.30000000
H        9.23391304      52.28217391      10.30000000
O        9.47391304      54.34347826      10.30000000
H       10.43391304      54.34347826      10.30000000
H        9.23391304      55.27347826      10.30000000
O        9.47391304      57.33478261      10.30000000
H       10.43391304      57.33478261      10.30000000
H        9.23391304      58.26478261      10.30000000
O        9.47391304      60.32608696      10.30000000
H       10.43391304      60.32608696      10.30000000
H        9.23391304      61.25608696      10.30000000
O        9.47391304      63.31739130      10.30000000
H       10.43391304      63.31739130      10.30000000
H        9.23391304      64.24739130      10.30000000
O        9.47391304      66.30869565      10.30000000
H       10.43391304      66.30869565      10.30000000
H        9.23391304      67.23869565      10.30000000
O       12.46521739       0.50000000      10.30000000
H       13.42521739       0.50000000      10.30000000
H       12.22521739       1.43000000      10.30000000
O       12.46521739       3.49130435      10.30000000
H       13.42521739       3.49130435      10.30000000
H       12.22521739       4.42130435      10.30000000
O       12.46521739       6.48260870      10.30000000
H       13.42521739       6.48260870      10.30000000
H       12.22521739       7.41260870      10.30000000
O       12.46521739       9.47391304      10.30000000
H       13.42521739       9.47391304      10.30000000
H       12.22521739      10.40391304      10.30000000
O       12.46521739      12.46521739      10.30000000
H       13.42521739      12.46521739      10.30000000
H       12.22521739      13.39521739      10.30000000
O       12.46521739      15.45652174      10.30000000
H       13.42521739      15.45652174      10.30000000
H       12.22521739      16.38652174      10.30000000
O       12.46521739      18.44782609      10.30000000
H       13.42521739      18.44782609      10.30000000
H       12.22521739      19.37782609      10.30000000
O       12.46521739      21.43913043      10.30000000
H       13.42521739      21.43913043      10.30000000
H       12.22521739      22.36913043      10.30000000
O       12.46521739      24.43043478      10.30000000
H       13.42521739      24.43043478      10.30000000
H       12.22521739      25.36043478      10.30000000
O       12.46521739      27.42173913      10.30000000
H       13.42521739      27.42173913      10.30000000
H       12.22521739      28.35173913      10.30000000
O       12.46521739      30.41304348      10.30000000
H       13.42521739      30.41304348      10.30000000
H       12.22521739      31.34304348      10.30000000
O       12.46521739      33.40434783      10.30000000
H       13.42521739      33.40434783      10.30000000
H       12.22521739      34.33434783      10.30000000
O       12.46521739      36.39565217      10.30000000
H       13.42521739      36.39565217      10.30000000
H       12.22521739      37.32565217      10.30000000
O       12.46521739      39.38695652      10.30000000
H       13.42521739      39.38695652      10.30000000
H       12.22521739      40.31695652      10.30000000
O       12.46521739      42.37826087      10.30000000
H       13.42521739      42.37826087      10.30000000
H       12.22521739      43.30826087      10.30000000
O       12.46521739      45.36956522      10.30000000
H       13.42521739      45.36956522      10.30000000
H       12.22521739      46.29956522      10.30000000
O       12.46521739      48.36086957      10.30000000
H       13.42521739      48.36086957      10.30000000
H       12.22521739      49.29086957      10.30000000
O       12.46521739      51.35217391      10.30000000
H       13.42521739      51.35217391      10.30000000
H       12.22521739      52.28217391      10.30000000
O       12.46521739      54.34347826      10.30000000
H       13.42521739      54.34347826      10.30000000
H       12.22521739      55.27347826      10.30000000
O       12.46521739      57.33478261      10.30000000
H       13.42521739      57.33478261      10.30000000
H       12.22521739      58.26478261      10.30000000
O       12.46521739      60.32608696      10.30000000
H       13.42521739      60.32608696      10.30000000
H       12.22521739      61.25608696      10.30000000
O       12.46521739      63.31739130      10.30000000
H       13.42521739      63.31739130      10.30000000
H       12.22521739      64.24739130      10.30000000
O       12.46521739      66.30869565      10.30000000
H       13.42521739      66.30869565      10.30000000
H       12.22521739      67.23869565      10.30000000
O       15.45652174       0.50000000      10.30000000
H       16.41652174       0.50000000      10.30000000
H       15.21652174       1.43000000      10.30000000
O       15.45652174       3.49130435      10.30000000
H       16.41652174       3.49130435      10.30000000
H       15.21652174       4.42130435      10.30000000
O       15.45652174       6.48260870      10.30000000
H       16.41652174       6.48260870      10.30000000
H       15.21652174       7.41260870      10.30000000
O       15.45652174       9.47391304      10.30000000
H       16.41652174       9.47391304      10.30000000
H       15.21652174      10.40391304      10.30000000
O       15.45652174      12.46521739      10.30000000
H       16.41652174      12.46521739      10.30000000
H       15.21652174      13.39521739      10.30000000
O       15.45652174      15.45652174      10.30000000
H       16.41652174      15.45652174      10.30000000
H       15.21652174      16.38652174      10.30000000
O       15.45652174      18.44782609      10.30000000
H       16.41652174      18.44782609      10.30000000
H       15.21652174      19.37782609      10.30000000
O       15.45652174      21.43913043      10.30000000
H       16.41652174      21.43913043      10.30000000
H       15.21652174      22.36913043      10.30000000
O       15.45652174      24.43043478      10.30000000
H       16.41652174      24.43043478      10.30000000
H       15.21652174      25.36043478      10.30000000
O       15.45652174      27.42173913      10.30000000
H       16.41652174      27.42173913      10.30000000
H       15.21652174      28.35173913      10.30000000
O       15.45652174      30.41304348      10.30000000
H       16.41652174      30.41304348      10.30000000
H       15.21652174      31.34304348      10.30000000
O       15.45652174      33.40434783      10.30000000
H       16.41652174      33.40434783      10.30000000
H       15.21652174      34.33434783      10.30000000
O       15.45652174      36.39565217      10.30000000
H       16.41652174      36.39565217      10.30000000
H       15.21652174      37.32565217      10.30000000
O       15.45652174      39.38695652      10.30000000
H       16.41652174      39.38695652      10.30000000
H       15.21652174      40.31695652      10.30000000
O       15.45652174      42.37826087      10.30000000
H       16.41652174      42.37826087      10.30000000
H       15.21652174      43.30826087      10.30000000
O       15.45652174      45.36956522      10.30000000
H       16.41652174      45.36956522      10.30000000
H       15.21652174      46.29956522      10.30000000
O       15.45652174      48.36086957      10.30000000
H       16.41652174      48.36086957      10.30000000
H       15.21652174      49.29086957      10.30000000
O       15.45652174      51.35217391      10.30000000
H       16.41652174      51.35217391      10.30000000
H       15.21652174      52.28217391      10.30000000
O       15.45652174      54.34347826      10.30000000
H       16.41652174      54.34347826      10.30000000
H       15.21652174      55.27347826      10.30000000
O       15.45652174      57.33478261      10.30000000
H       16.41652174      57.33478261      10.30000000
H       15.21652174      58.26478261      10.30000000
O       15.45652174      60.32608696      10.30000000
H       16.41652174      60.32608696      10.30000000
H       15.21652174      61.25608696      10.30000000
O       15.45652174      63.31739130      10.30000000
H       16.41652174      63.31739130      10.30000000
H       15.21652174      64.24739130      10.30000000
O       15.45652174      66.30869565      10.30000000
H       16.41652174      66.30869565      10.30000000
H       15.21652174      67.23869565      10.30000000
O       18.44782609       0.50000000      10.30000000
H       19.40782609       0.50000000      10.30000000
H       18.20782609       1.43000000      10.30000000
O       18.44782609       3.49130435      10.30000000
H       19.40782609       3.49130435      10.30000000
H       18.20782609       4.42130435      10.30000000
O       18.44782609       6.48260870      10.30000000
H       19.40782609       6.48260870      10.30000000
H       18.20782609       7.41260870      10.30000000
O       18.44782609       9.47391304      10.30000000
H       19.40782609       9.47391304      10.30000000
H       18.20782609      10.40391304      10.30000000
O       18.44782609      12.46521739      10.30000000
H       19.40782609      12.46521739      10.30000000
H       18.20782609      13.39521739      10.30000000
O       18.44782609      15.45652174      10.30000000
H       19.40782609      15.45652174      10.30000000
H       18.20782609      16.38652174      10.30000000
O       18.44782609      18.44782609      10.30000000
H       19.40782609      18.44782609      10.30000000
H       18.20782609      19.37782609      10.30000000
O       18.44782609      21.43913043      10.30000000
H       19.40782609      21.43913043      10.30000000
H       18.20782609      22.36913043      10.30000000
O       18.44782609      24.43043478      10.30000000
H       19.40782609      24.43043478      10.30000000
H       18.20782609      25.36043478      10.30000000
O       18.44782609      27.42173913      10.30000000
H       19.40782609      27.42173913      10.30000000
H       18.20782609      28.35173913      10.30000000
O       18.44782609      30.41304348      10.30000000
H       19.40782609      30.41304348      10.30000000
H       18.20782609      31.34304348      10.30000000
O       18.44782609      33.40434783      10.30000000
H       19.40782609      33.40434783      10.30000000
H       18.20782609      34.33434783      10.30000000
O       18.44782609      36.39565217      10.30000000
H       19.40782609      36.39565217      10.30000000
H       18.20782609      37.32565217      10.30000000
O       18.44782609      39.38695652      10.30000000
H       19.40782609      39.38695652      10.30000000
H       18.20782609      40.31695652      10.30000000
O       18.44782609      42.37826087      10.30000000
H       19.40782609      42.37826087      10.30000000
H       18.20782609      43.30826087      10.30000000
O       18.44782609      45.36956522      10.30000000
H       19.40782609      45.36956522      10.30000000
H       18.20782609      46.29956522      10.30000000
O       18.44782609      48.36086957      10.30000000
H       19.40782609      48.36086957      10.30000000
H       18.20782609      49.29086957      10.30000000
O       18.44782609      51.35217391      10.30000000
H       19.40782609      51.35217391      10.30000000
H       18.20782609      52.28217391      10.30000000
O       18.44782609      54.34347826      10.30000000
H       19.40782609      54.34347826      10.30000000
H       18.20782609      55.27347826      10.30000000
O       18.44782609      57.33478261      10.30000000
H       19.40782609      57.33478261      10.30000000
H       18.20782609      58.26478261      10.30000000
O       18.44782609      60.32608696      10.30000000
H       19.40782609      60.32608696      10.30000000
H       18.20782609      61.25608696      10.30000000
O       18.44782609      63.31739130      10.30000000
H       19.40782609      63.31739130      10.30000000
H       18.20782609      64.24739130      10.30000000
O       18.44782609      66.30869565      10.30000000
H       19.40782609      66.30869565      10.30000000
H       18.20782609      67.23869565      10.30000000
O       21.43913043       0.50000000      10.30000000
H       22.39913043       0.50000000      10.30000000
H       21.19913043       1.43000000      10.30000000
O       21.43913043       3.49130435      10.30000000
H       22.39913043       3.49130435      10.30000000
H       21.19913043       4.42130435      10.30000000
O       21.43913043       6.48260870      10.30000000
H       22.39913043       6.48260870      10.30000000
H       21.19913043       7.41260870      10.30000000
O       21.43913043       9.47391304      10.30000000
H       22.39913043       9.47391304      10.30000000
H       21.19913043      10.40391304      10.30000000
O       21.43913043      12.46521739      10.30000000
H       22.39913043      12.46521739      10.30000000
H       21.19913043      13.39521739      10.30000000
O       21.43913043      15.45652174      10.30000000
H       22.39913043      15.45652174      10.30000000
H       21.19913043      16.38652174      10.30000000
O       21.43913043      18.44782609      10.30000000
H       22.39913043      18.44782609      10.30000000
H       21.19913043      19.37782609      10.30000000
O       21.43913043      21.43913043      10.30000000
H       22.39913043      21.43913043      10.30000000
H       21.19913043      22.36913043      10.30000000
O       21.43913043      24.43043478      10.30000000
H       22.39913043      24.43043478      10.30000000
H       21.19913043      25.36043478      10.30000000
O       21.43913043      27.42173913      10.30000000
H       22.39913043      27.42173913      10.30000000
H       21.19913043      28.35173913      10.30000000
O       21.43913043      30.41304348      10.30000000
H       22.39913043      30.41304348      10.30000000
H       21.19913043      31.34304348      10.30000000
O       21.43913043      33.40434783      10.30000000
H       22.39913043      33.40434783      10.30000000
H       21.19913043      34.33434783      10.30000000
O       21.43913043      36.39565217      10.30000000
H       22.39913043      36.39565217      10.30000000
H       21.19913043      37.32565217      10.30000000
O       21.43913043      39.38695652      10.30000000
H       22.39913043      39.38695652      10.30000000
H       21.19913043      40.31695652      10.30000000
O       21.43913043      42.37826087      10.30000000
H       22.39913043      42.37826087      10.30000000
H       21.19913043      43.30826087      10.30000000
O       21.43913043      45.36956522      10.30000000
H       22.39913043      45.36956522      10.30000000
H       21.19913043      46.29956522      10.30000000
O       21.43913043      48.36086957      10.30000000
H       22.39913043      48.36086957      10.30000000
H       21.19913043      49.29086957      10.30000000
O       21.43913043      51.35217391      10.30000000
H       22.39913043      51.35217391      10.30000000
H       21.19913043      52.28217391      10.30000000
O       21.43913043      54.34347826      10.30000000
H       22.39913043      54.34347826      10.30000000
H       21.19913043      55.27347826      10.30000000
O       21.43913043      57.33478261      10.30000000
H       22.39913043      57.33478261      10.30000000
H       21.19913043      58.26478261      10.30000000
O       21.43913043      60.32608696      10.30000000
H       22.39913043      60.32608696      10.30000000
H       21.19913043      61.25608696      10.30000000
O       21.43913043      63.31739130      10.30000000
H       22.39913043      63.31739130      10.30000000
H       21.19913043      64.24739130      10.30000000
O       21.43913043      66.30869565      10.30000000
H       22.39913043      66.30869565      10.30000000
H       21.19913043      67.23869565      10.30000000
O       24.43043478       0.50000000      10.30000000
H       25.39043478       0.50000000      10.30000000
H       24.19043478       1.43000000      10.30000000
O       24.43043478       3.49130435      10.30000000
H       25.39043478       3.49130435      10.30000000
H       24.19043478       4.42130435      10.30000000
O       24.43043478       6.48260870      10.30000000
H       25.39043478       6.48260870      10.30000000
H       24.19043478       7.41260870      10.30000000
O       24.43043478       9.47391304      10.30000000
H       25.39043478       9.47391304      10.30000000
H       24.19043478      10.40391304      10.30000000
O       24.43043478      12.46521739      10.30000000
H       25.39043478      12.46521739      10.30000000
H       24.19043478      13.39521739      10.30000000
O       24.43043478      15.45652174      10.30000000
H       25.39043478      15.45652174      10.30000000
H       24.19043478      16.38652174      10.30000000
O       24.43043478      18.44782609      10.30000000
H       25.39043478      18.44782609      10.30000000
H       24.19043478      19.37782609      10.30000000
O       24.43043478      21.43913043      10.30000000
H       25.39043478      21.43913043      10.30000000
H       24.19043478      22.36913043      10.30000000
O       24.43043478      24.43043478      10.30000000
H       25.39043478      24.43043478      10.30000000
H       24.19043478      25.36043478      10.30000000
O       24.43043478      27.42173913      10.30000000
H       25.39043478      27.42173913      10.30000000
H       24.19043478      28.35173913      10.30000000
O       24.43043478      30.41304348      10.30000000
H       25.39043478      30.41304348      10.30000000
H       24.19043478      31.34304348      10.30000000
O       24.43043478      33.40434783      10.30000000
H       25.39043478      33.40434783      10.30000000
H       24.19043478      34.33434783      10.30000000
O       24.43043478      36.39565217      10.30000000
H       25.39043478      36.39565217      10.30000000
H       24.19043478      37.32565217      10.30000000
O       24.43043478      39.38695652      10.30000000
H       25.39043478      39.38695652      10.30000000
H       24.19043478      40.31695652      10.30000000
O       24.43043478      42.37826087      10.30000000
H       25.39043478      42.37826087      10.30000000
H       24.19043478      43.30826087      10.30000000
O       24.43043478      45.36956522      10.30000000
H       25.39043478      45.36956522      10.30000000
H       24.19043478      46.29956522      10.30000000
O       24.43043478      48.36086957      10.30000000
H       25.39043478      48.36086957      10.30000000
H       24.19043478      49.29086957      10.30000000
O       24.43043478      51.35217391      10.30000000
H       25.39043478      51.35217391      10.30000000
H       24.19043478      52.28217391      10.30000000
O       24.43043478      54.34347826      10.30000000
H       25.39043478      54.34347826      10.30000000
H       24.19043478      55.27347826      10.30000000
O       24.43043478      57.33478261      10.30000000
H       25.39043478      57.33478261      10.30000000
H       24.19043478      58.26478261      10.30000000
O       24.43043478      60.32608696      10.30000000
H       25.39043478      60.32608696      10.30000000
H       24.19043478      61.25608696      10.30000000
O       24.43043478      63.31739130      10.30000000
H       25.39043478      63.31739130      10.30000000
H       24.19043478      64.24739130      10.30000000
O       24.43043478      66.30869565      10.30000000
H       25.39043478      66.30869565      10.30000000
H       24.19043478      67.23869565      10.30000000
O       27.42173913       0.50000000      10.30000000
H       28.38173913       0.50000000      10.30000000
H       27.18173913       1.43000000      10.30000000
O       27.42173913       3.49130435      10.30000000
H       28.38173913       3.49130435      10.30000000
H       27.18173913       4.42130435      10.30000000
O       27.42173913       6.48260870      10.30000000
H       28.38173913       6.48260870      10.30000000
H       27.18173913       7.41260870      10.30000000
O       27.42173913       9.47391304      10.30000000
H       28.38173913       9.47391304      10.30000000
H       27.18173913      10.40391304      10.30000000
O       27.42173913      12.46521739      10.30000000
H       28.38173913      12.46521739      10.30000000
H       27.18173913      13.39521739      10.30000000
O       27.42173913      15.45652174      10.30000000
H       28.38173913      15.45652174      10.30000000
H       27.18173913      16.38652174      10.30000000
O       27.42173913      18.44782609      10.30000000
H       28.38173913      18.44782609      10.30000000
H       27.18173913      19.37782609      10.30000000
O       27.42173913      21.43913043      10.30000000
H       28.38173913      21.43913043      10.30000000
H       27.18173913      22.36913043      10.30000000
O       27.42173913      24.43043478      10.30000000
H       28.38173913      24.43043478      10.30000000
H       27.18173913      25.36043478      10.30000000
O       27.42173913      27.42173913      10.30000000
H       28.38173913      27.42173913      10.30000000
H       27.18173913      28.35173913      10.30000000
O       27.42173913      30.41304348      10.30000000
H       28.38173913      30.41304348      10.30000000
H       27.18173913      31.34304348      10.30000000
O       27.42173913      33.40434783      10.30000000
H       28.38173913      33.40434783      10.30000000
H       27.18173913      34.33434783      10.30000000
O       27.42173913      36.39565217      10.30000000
H       28.38173913      36.39565217      10.30000000
H       27.18173913      37.32565217      10.30000000
O       27.42173913      39.38695652      10.30000000
H       28.38173913      39.38695652      10.30000000
H       27.18173913      40.31695652      10.30000000
O       27.42173913      42.37826087      10.30000000
H       28.38173913      42.37826087      10.30000000
H       27.18173913      43.30826087      10.30000000
O       27.42173913      45.36956522      10.30000000
H       28.38173913      45.36956522      10.30000000
H       27.18173913      46.29956522      10.30000000
O       27.42173913      48.36086957      10.30000000
H       28.38173913      48.36086957      10.30000000
H       27.18173913      49.29086957      10.30000000
O       27.42173913      51.35217391      10.30000000
H       28.38173913      51.35217391      10.30000000
H       27.18173913      52.28217391      10.30000000
O       27.42173913      54.34347826      10.30000000
H       28.38173913      54.34347826      10.30000000
H       27.18173913      55.27347826      10.30000000
O       27.42173913      57.33478261      10.30000000
H       28.38173913      57.33478261      10.30000000
H       27.18173913      58.26478261      10.30000000
O       27.42173913      60.32608696      10.30000000
H       28.38173913      60.32608696      10.30000000
H       27.18173913      61.25608696      10.30000000
O       27.42173913      63.31739130      10.30000000
H       28.38173913      63.31739130      10.30000000
H       27.18173913      64.24739130      10.30000000
O       27.42173913      66.30869565      10.30000000
H       28.38173913      66.30869565      10.30000000
H       27.18173913      67.23869565      10.30000000
O       30.41304348       0.50000000      10.30000000
H       31.37304348       0.50000000      10.30000000
H       30.17304348       1.43000000      10.30000000
O       30.41304348       3.49130435      10.30000000
H       31.37304348       3.49130435      10.30000000
H       30.17304348       4.42130435      10.30000000
O       30.41304348       6.48260870      10.30000000
H       31.37304348       6.48260870      10.30000000
H       30.17304348       7.41260870      10.30000000
O       30.41304348       9.47391304      10.30000000
H       31.37304348       9.47391304      10.30000000
H       30.17304348      10.40391304      10.30000000
O       30.41304348      12.46521739      10.30000000
H       31.37304348      12.46521739      10.30000000
H       30.17304348      13.39521739      10.30000000
O       30.41304348      15.45652174      10.30000000
H       31.37304348      15.45652174      10.30000000
H       30.17304348      16.38652174      10.30000000
O       30.41304348      18.44782609      10.30000000
H       31.37304348      18.44782609      10.30000000
H       30.17304348      19.37782609      10.30000000
O       30.41304348      21.43913043      10.30000000
H       31.37304348      21.43913043      10.30000000
H       30.17304348      22.36913043      10.30000000
O       30.41304348      24.43043478      10.30000000
H       31.37304348      24.43043478      10.30000000
H       30.17304348      25.36043478      10.30000000
O       30.41304348      27.42173913      10.30000000
H       31.37304348      27.42173913      10.30000000
H       30.17304348      28.35173913      10.30000000
O       30.41304348      30.41304348      10.30000000
H       31.37304348      30.41304348      10.30000000
H       30.17304348      31.34304348      10.30000000
O       30.41304348      33.40434783      10.30000000
H       31.37304348      33.40434783      10.30000000
H       30.17304348      34.33434783      10.30000000
O       30.41304348      36.39565217      10.30000000
H       31.37304348      36.39565217      10.30000000
H       30.17304348      37.32565217      10.30000000
O       30.41304348      39.38695652      10.30000000
H       31.37304348      39.38695652      10.30000000
H       30.17304348      40.31695652      10.30000000
O       30.41304348      42.37826087      10.30000000
H       31.37304348      42.37826087      10.30000000
H       30.17304348      43.30826087      10.30000000
O       30.41304348      45.36956522      10.30000000
H       31.37304348      45.36956522      10.30000000
H       30.17304348      46.29956522      10.30000000
O       30.41304348      48.36086957      10.30000000
H       31.37304348      48.36086957      10.30000000
H       30.17304348      49.29086957      10.30000000
O       30.41304348      51.35217391      10.30000000
H       31.37304348      51.35217391      10.30000000
H       30.17304348      52.28217391      10.30000000
O       30.41304348      54.34347826      10.30000000
H       31.37304348      54.34347826      10.30000000
H       30.17304348      55.27347826      10.30000000
O       30.41304348      57.33478261      10.30000000
H       31.37304348      57.33478261      10.30000000
H       30.17304348      58.26478261      10.30000000
O       30.41304348      60.32608696      10.30000000
H       31.37304348      60.32608696      10.30000000
H       30.17304348      61.25608696      10.30000000
O       30.41304348      63.31739130      10.30000000
H       31.37304348      63.31739130      10.30000000
H       30.17304348      64.24739130      10.30000000
O       30.41304348      66.30869565      10.30000000
H       31.37304348      66.30869565      10.30000000
H       30.17304348      67.23869565      10.30000000
O       33.40434783       0.50000000      10.30000000
H       34.36434783       0.50000000      10.30000000
H       33.16434783       1.43000000      10.30000000
O       33.40434783       3.49130435      10.30000000
H       34.36434783       3.49130435      10.30000000
H       33.16434783       4.42130435      10.30000000
O       33.40434783       6.48260870      10.30000000
H       34.36434783       6.48260870      10.30000000
H       33.16434783       7.41260870      10.30000000
O       33.40434783       9.47391304      10.30000000
H       34.36434783       9.47391304      10.30000000
H       33.16434783      10.40391304      10.30000000
O       33.40434783      12.46521739      10.30000000
H       34.36434783      12.46521739      10.30000000
H       33.16434783      13.39521739      10.30000000
O       33.40434783      15.45652174      10.30000000
H       34.36434783      15.45652174      10.30000000
H       33.16434783      16.38652174      10.30000000
O       33.40434783      18.44782609      10.30000000
H       34.36434783      18.44782609      10.30000000
H       33.16434783      19.37782609      10.30000000
O       33.40434783      21.43913043      10.30000000
H       34.36434783      21.43913043      10.30000000
H       33.16434783      22.36913043      10.30000000
O       33.40434783      24.43043478      10.30000000
H       34.36434783      24.43043478      10.30000000
H       33.16434783      25.36043478      10.30000000
O       33.40434783      27.42173913      10.30000000
H       34.36434783      27.42173913      10.30000000
H       33.16434783      28.35173913      10.30000000
O       33.40434783      30.41304348      10.30000000
H       34.36434783      30.41304348      10.30000000
H       33.16434783      31.34304348      10.30000000
O       33.40434783      33.40434783      10.30000000
H       34.36434783      33.40434783      10.30000000
H       33.16434783      34.33434783      10.30000000
O       33.40434783      36.39565217      10.30000000
H       34.36434783      36.39565217      10.30000000
H       33.16434783      37.32565217      10.30000000
O       33.40434783      39.38695652      10.30000000
H       34.36434783      39.38695652      10.30000000
H       33.16434783      40.31695652      10.30000000
O       33.40434783      42.37826087      10.30000000
H       34.36434783      42.37826087      10.30000000
H       33.16434783      43.30826087      10.30000000
O       33.40434783      45.36956522      10.30000000
H       34.36434783      45.36956522      10.30000000
H       33.16434783      46.29956522      10.30000000
O       33.40434783      48.36086957      10.30000000
H       34.36434783      48.36086957      10.30000000
H       33.16434783      49.29086957      10.30000000
O       33.40434783      51.35217391      10.30000000
H       34.36434783      51.35217391      10.30000000
H       33.16434783      52.28217391      10.30000000
O       33.40434783      54.34347826      10.30000000
H       34.36434783      54.34347826      10.30000000
H       33.16434783      55.27347826      10.30000000
O       33.40434783      57.33478261      10.30000000
H       34.36434783      57.33478261      10.30000000
H       33.16434783      58.26478261      10.30000000
O       33.40434783      60.32608696      10.30000000
H       34.36434783      60.32608696      10.30000000
H       33.16434783      61.25608696      10.30000000
O       33.40434783      63.31739130      10.30000000
H       34.36434783      63.31739130      10.30000000
H       33.16434783      64.24739130      10.30000000
O       33.40434783      66.30869565      10.30000000
H       34.36434783      66.30869565      10.30000000
H       33.16434783      67.23869565      10.30000000
O       36.39565217       0.50000000      10.30000000
H       37.35565217       0.50000000      10.30000000
H       36.15565217       1.43000000      10.30000000
O       36.39565217       3.49130435      10.30000000
H       37.35565217       3.49130435      10.30000000
H       36.15565217       4.42130435      10.30000000
O       36.39565217       6.48260870      10.30000000
H       37.35565217       6.48260870      10.30000000
H       36.15565217       7.41260870      10.30000000
O       36.39565217       9.47391304      10.30000000
H       37.35565217       9.47391304      10.30000000
H       36.15565217      10.40391304      10.30000000
O       36.39565217      12.46521739      10.30000000
H       37.35565217      12.46521739      10.30000000
H       36.15565217      13.39521739      10.30000000
O       36.39565217      15.45652174      10.30000000
H       37.35565217      15.45652174      10.30000000
H       36.15565217      16.38652174      10.30000000
O       36.39565217      18.44782609      10.30000000
H       37.35565217      18.44782609      10.30000000
H       36.15565217      19.37782609      10.30000000
O       36.39565217      21.43913043      10.30000000
H       37.35565217      21.43913043      10.30000000
H       36.15565217      22.36913043      10.30000000
O       36.39565217      24.43043478      10.30000000
H       37.35565217      24.43043478      10.30000000
H       36.15565217      25.36043478      10.30000000
O       36.39565217      27.42173913      10.30000000
H       37.35565217      27.42173913      10.30000000
H       36.15565217      28.35173913      10.30000000
O       36.39565217      30.41304348      10.30000000
H       37.35565217      30.41304348      10.30000000
H       36.15565217      31.34304348      10.30000000
O       36.39565217      33.40434783      10.30000000
H       37.35565217      33.40434783      10.30000000
H       36.15565217      34.33434783      10.30000000
O       36.39565217      36.39565217      10.30000000
H       37.35565217      36.39565217      10.30000000
H       36.15565217      37.32565217      10.30000000
O       36.39565217      39.38695652      10.30000000
H       37.35565217      39.38695652      10.30000000
H       36.15565217      40.31695652      10.30000000
O       36.39565217      42.37826087      10.30000000
H       37.35565217      42.37826087      10.30000000
H       36.15565217      43.30826087      10.30000000
O       36.39565217      45.36956522      10.30000000
H       37.35565217      45.36956522      10.30000000
H       36.15565217      46.29956522      10.30000000
O       36.39565217      48.36086957      10.30000000
H       37.35565217      48.36086957      10.30000000
H       36.15565217      49.29086957      10.30000000
O       36.39565217      51.35217391      10.30000000
H       37.35565217      51.35217391      10.30000000
H       36.15565217      52.28217391      10.30000000
O       36.39565217      54.34347826      10.30000000
H       37.35565217      54.34347826      10.30000000
H       36.15565217      55.27347826      10.30000000
O       36.39565217      57.33478261      10.30000000
H       37.35565217      57.33478261      10.30000000
H       36.15565217      58.26478261      10.30000000
O       36.39565217      60.32608696      10.30000000
H       37.35565217      60.32608696      10.30000000
H       36.15565217      61.25608696      10.30000000
O       36.39565217      63.31739130      10.30000000
H       37.35565217      63.31739130      10.30000000
H       36.15565217      64.24739130      10.30000000
O       36.39565217      66.30869565      10.30000000
H       37.35565217      66.30869565      10.30000000
H       36.15565217      67.23869565      10.30000000
O       39.38695652       0.50000000      10.30000000
H       40.34695652       0.50000000      10.30000000
H       39.14695652       1.43000000      10.30000000
O       39.38695652       3.49130435      10.30000000
H       40.34695652       3.49130435      10.30000000
H       39.14695652       4.42130435      10.30000000
O       39.38695652       6.48260870      10.30000000
H       40.34695652       6.48260870      10.30000000
H       39.14695652       7.41260870      10.30000000
O       39.38695652       9.47391304      10.30000000
H       40.34695652       9.47391304      10.30000000
H       39.14695652      10.40391304      10.30000000
O       39.38695652      12.46521739      10.30000000
H       40.34695652      12.46521739      10.30000000
H       39.14695652      13.39521739      10.30000000
O       39.38695652      15.45652174      10.30000000
H       40.34695652      15.45652174      10.30000000
H       39.14695652      16.38652174      10.30000000
O       39.38695652      18.44782609      10.30000000
H       40.34695652      18.44782609      10.30000000
H       39.14695652      19.37782609      10.30000000
O       39.38695652      21.43913043      10.30000000
H       40.34695652      21.43913043      10.30000000
H       39.14695652      22.36913043      10.30000000
O       39.38695652      24.43043478      10.30000000
H       40.34695652      24.43043478      10.30000000
H       39.14695652      25.36043478      10.30000000
O       39.38695652      27.42173913      10.30000000
H       40.34695652      27.42173913      10.30000000
H       39.14695652      28.35173913      10.30000000
O       39.38695652      30.41304348      10.30000000
H       40.34695652      30.41304348      10.30000000
H       39.14695652      31.34304348      10.30000000
O       39.38695652      33.40434783      10.30000000
H       40.34695652      33.40434783      10.30000000
H       39.14695652      34.33434783      10.30000000
O       39.38695652      36.39565217      10.30000000
H       40.34695652      36.39565217      10.30000000
H       39.14695652      37.32565217      10.30000000
O       39.38695652      39.38695652      10.30000000
H       40.34695652      39.38695652      10.30000000
H       39.14695652      40.31695652      10.30000000
O       39.38695652      42.37826087      10.30000000
H       40.34695652      42.37826087      10.30000000
H       39.14695652      43.30826087      10.30000000
O       39.38695652      45.36956522      10.30000000
H       40.34695652      45.36956522      10.30000000
H       39.14695652      46.29956522      10.30000000
O       39.38695652      48.36086957      10.30000000
H       40.34695652      48.36086957      10.30000000
H       39.14695652      49.29086957      10.30000000
O       39.38695652      51.35217391      10.30000000
H       40.34695652      51.35217391      10.30000000
H       39.14695652      52.28217391      10.30000000
O       39.38695652      54.34347826      10.30000000
H       40.34695652      54.34347826      10.30000000
H       39.14695652      55.27347826      10.30000000
O       39.38695652      57.33478261      10.30000000
H       40.34695652      57.33478261      10.30000000
H       39.14695652      58.26478261      10.30000000
O       39.38695652      60.32608696      10.30000000
H       40.34695652      60.32608696      10.30000000
H       39.14695652      61.25608696      10.30000000
O       39.38695652      63.31739130      10.30000000
H       40.34695652      63.31739130      10.30000000
H       39.14695652      64.24739130      10.30000000
O       39.38695652      66.30869565      10.30000000
H       40.34695652      66.30869565      10.30000000
H       39.14695652      67.23869565      10.30000000
O       42.37826087       0.50000000      10.30000000
H       43.33826087       0.50000000      10.30000000
H       42.13826087       1.43000000      10.30000000
O       42.37826087       3.49130435      10.30000000
H       43.33826087       3.49130435      10.30000000
H       42.13826087       4.42130435      10.30000000
O       42.37826087       6.48260870      10.30000000
H       43.33826087       6.48260870      10.30000000
H       42.13826087       7.41260870      10.30000000
O       42.37826087       9.47391304      10.30000000
H       43.33826087       9.47391304      10.30000000
H       42.13826087      10.40391304      10.30000000
O       42.37826087      12.46521739      10.30000000
H       43.33826087      12.46521739      10.30000000
H       42.13826087      13.39521739      10.30000000
O       42.37826087      15.45652174      10.30000000
H       43.33826087      15.45652174      10.30000000
H       42.13826087      16.38652174      10.30000000
O       42.37826087      18.44782609      10.30000000
H       43.33826087      18.44782609      10.30000000
H       42.13826087      19.37782609      10.30000000
O       42.37826087      21.43913043      10.30000000
H       43.33826087      21.43913043      10.30000000
H       42.13826087      22.36913043      10.30000000
O       42.37826087      24.43043478      10.30000000
H       43.33826087      24.43043478      10.30000000
H       42.13826087      25.36043478      10.30000000
O       42.37826087      27.42173913      10.30000000
H       43.33826087      27.42173913      10.30000000
H       42.13826087      28.35173913      10.30000000
O       42.37826087      30.41304348      10.30000000
H       43.33826087      30.41304348      10.30000000
H       42.13826087      31.34304348      10.30000000
O       42.37826087      33.40434783      10.30000000
H       43.33826087      33.40434783      10.30000000
H       42.13826087      34.33434783      10.30000000
O       42.37826087      36.39565217      10.30000000
H       43.33826087      36.39565217      10.30000000
H       42.13826087      37.32565217      10.30000000
O       42.37826087      39.38695652      10.30000000
H       43.33826087      39.38695652      10.30000000
H       42.13826087      40.31695652      10.30000000
O       42.37826087      42.37826087      10.30000000
H       43.33826087      42.37826087      10.30000000
H       42.13826087      43.30826087      10.30000000
O       42.37826087      45.36956522      10.30000000
H       43.33826087      45.36956522      10.30000000
H       42.13826087      46.29956522      10.30000000
O       42.37826087      48.36086957      10.30000000
H       43.33826087      48.36086957      10.30000000
H       42.13826087      49.29086957      10.30000000
O       42.37826087      51.35217391      10.30000000
H       43.33826087      51.35217391      10.30000000
H       42.13826087      52.28217391      10.30000000
O       42.37826087      54.34347826      10.30000000
H       43.33826087      54.34347826      10.30000000
H       42.13826087      55.27347826      10.30000000
O       42.37826087      57.33478261      10.30000000
H       43.33826087      57.33478261      10.30000000
H       42.13826087      58.26478261      10.30000000
O       42.37826087      60.32608696      10.30000000
H       43.33826087      60.32608696      10.30000000
H       42.13826087      61.25608696      10.30000000
O       42.37826087      63.31739130      10.30000000
H       43.33826087      63.31739130      10.30000000
H       42.13826087      64.24739130      10.30000000
O       42.37826087      66.30869565      10.30000000
H       43.33826087      66.30869565      10.30000000
H       42.13826087      67.23869565      10.30000000
O       45.36956522       0.50000000      10.30000000
H       46.32956522       0.50000000      10.30000000
H       45.12956522       1.43000000      10.30000000
O       45.36956522       3.49130435      10.30000000
H       46.32956522       3.49130435      10.30000000
H       45.12956522       4.42130435      10.30000000
O       45.36956522       6.48260870      10.30000000
H       46.32956522       6.48260870      10.30000000
H       45.12956522       7.41260870      10.30000000
O       45.36956522       9.47391304      10.30000000
H       46.32956522       9.47391304      10.30000000
H       45.12956522      10.40391304      10.30000000
O       45.36956522      12.46521739      10.30000000
H       46.32956522      12.46521739      10.30000000
H       45.12956522      13.39521739      10.30000000
O       45.36956522      15.45652174      10.30000000
H       46.32956522      15.45652174      10.30000000
H       45.12956522      16.38652174      10.30000000
O       45.36956522      18.44782609      10.30000000
H       46.32956522      18.44782609      10.30000000
H       45.12956522      19.37782609      10.30000000
O       45.36956522      21.43913043      10.30000000
H       46.32956522      21.43913043      10.30000000
H       45.12956522      22.36913043      10.30000000
O       45.36956522      24.43043478      10.30000000
H       46.32956522      24.43043478      10.30000000
H       45.12956522      25.36043478      10.30000000
O       45.36956522      27.42173913      10.30000000
H       46.32956522      27.42173913      10.30000000
H       45.12956522      28.35173913      10.30000000
O       45.36956522      30.41304348      10.30000000
H       46.32956522      30.41304348      10.30000000
H       45.12956522      31.34304348      10.30000000
O       45.36956522      33.40434783      10.30000000
H       46.32956522      33.40434783      10.30000000
H       45.12956522      34.33434783      10.30000000
O       45.36956522      36.39565217      10.30000000
H       46.32956522      36.39565217      10.30000000
H       45.12956522      37.32565217      10.30000000
O       45.36956522      39.38695652      10.30000000
H       46.32956522      39.38695652      10.30000000
H       45.12956522      40.31695652      10.30000000
O       45.36956522      42.37826087      10.30000000
H       46.32956522      42.37826087      10.30000000
H       45.12956522      43.30826087      10.30000000
O       45.36956522      45.36956522      10.30000000
H       46.32956522      45.36956522      10.30000000
H       45.12956522      46.29956522      10.30000000
O       45.36956522      48.36086957      10.30000000
H       46.32956522      48.36086957      10.30000000
H       45.12956522      49.29086957      10.30000000
O       45.36956522      51.35217391      10.30000000
H       46.32956522      51.35217391      10.30000000
H       45.12956522      52.28217391      10.30000000
O       45.36956522      54.34347826      10.30000000
H       46.32956522      54.34347826      10.30000000
H       45.12956522      55.27347826      10.30000000
O       45.36956522      57.33478261      10.30000000
H       46.32956522      57.33478261      10.30000000
H       45.12956522      58.26478261      10.30000000
O       45.36956522      60.32608696      10.30000000
H       46.32956522      60.32608696      10.30000000
H       45.12956522      61.25608696      10.30000000
O       45.36956522      63.31739130      10.30000000
H       46.32956522      63.31739130      10.30000000
H       45.12956522      64.24739130      10.30000000
O       45.36956522      66.30869565      10.30000000
H       46.32956522      66.30869565      10.30000000
H       45.12956522      67.23869565      10.30000000
O       48.36086957       0.50000000      10.30000000
H       49.32086957       0.50000000      10.30000000
H       48.12086957       1.43000000      10.30000000
O       48.36086957       3.49130435      10.30000000
H       49.32086957       3.49130435      10.30000000
H       48.12086957       4.42130435      10.30000000
O       48.36086957       6.48260870      10.30000000
H       49.32086957       6.48260870      10.30000000
H       48.12086957       7.41260870      10.30000000
O       48.36086957       9.47391304      10.30000000
H       49.32086957       9.47391304      10.30000000
H       48.12086957      10.40391304      10.30000000
O       48.36086957      12.46521739      10.30000000
H       49.32086957      12.46521739      10.30000000
H       48.12086957      13.39521739      10.30000000
O       48.36086957      15.45652174      10.30000000
H       49.32086957      15.45652174      10.30000000
H       48.12086957      16.38652174      10.30000000
O       48.36086957      18.44782609      10.30000000
H       49.32086957      18.44782609      10.30000000
H       48.12086957      19.37782609      10.30000000
O       48.36086957      21.43913043      10.30000000
H       49.32086957      21.43913043      10.30000000
H       48.12086957      22.36913043      10.30000000
O       48.36086957      24.43043478      10.30000000
H       49.32086957      24.43043478      10.30000000
H       48.12086957      25.36043478      10.30000000
O       48.36086957      27.42173913      10.30000000
H       49.32086957      27.42173913      10.30000000
H       48.12086957      28.35173913      10.30000000
O       48.36086957      30.41304348      10.30000000
H       49.32086957      30.41304348      10.30000000
H       48.12086957      31.34304348      10.30000000
O       48.36086957      33.40434783      10.30000000
H       49.32086957      33.40434783      10.30000000
H       48.12086957      34.33434783      10.30000000
O       48.36086957      36.39565217      10.30000000
H       49.32086957      36.39565217      10.30000000
H       48.12086957      37.32565217      10.30000000
O       48.36086957      39.38695652      10.30000000
H       49.32086957      39.38695652      10.30000000
H       48.12086957      40.31695652      10.30000000
O       48.36086957      42.37826087      10.30000000
H       49.32086957      42.37826087      10.30000000
H       48.12086957      43.30826087      10.30000000
O       48.36086957      45.36956522      10.30000000
H       49.32086957      45.36956522      10.30000000
H       48.12086957      46.29956522      10.30000000
O       48.36086957      48.36086957      10.30000000
H       49.32086957      48.36086957      10.30000000
H       48.12086957      49.29086957      10.30000000
O       48.36086957      51.35217391      10.30000000
H       49.32086957      51.35217391      10.30000000
H       48.12086957      52.28217391      10.30000000
O       48.36086957      54.34347826      10.30000000
H       49.32086957      54.34347826      10.30000000
H       48.12086957      55.27347826      10.30000000
O       48.36086957      57.33478261      10.30000000
H       49.32086957      57.33478261      10.30000000
H       48.12086957      58.26478261      10.30000000
O       48.36086957      60.32608696      10.30000000
H       49.32086957      60.32608696      10.30000000
H       48.12086957      61.25608696      10.30000000
O       48.36086957      63.31739130      10.30000000
H       49.32086957      63.31739130      10.30000000
H       48.12086957      64.24739130      10.30000000
O       48.36086957      66.30869565      10.30000000
H       49.32086957      66.30869565      10.30000000
H       48.12086957      67.23869565      10.30000000
O       51.35217391       0.50000000      10.30000000
H       52.31217391       0.50000000      10.30000000
H       51.11217391       1.43000000      10.30000000
O       51.35217391       3.49130435      10.30000000
H       52.31217391       3.49130435      10.30000000
H       51.11217391       4.42130435      10.30000000
O       51.35217391       6.48260870      10.30000000
H       52.31217391       6.48260870      10.30000000
H       51.11217391       7.41260870      10.30000000
O       51.35217391       9.47391304      10.30000000
H       52.31217391       9.47391304      10.30000000
H       51.11217391      10.40391304      10.30000000
O       51.35217391      12.46521739      10.30000000
H       52.31217391      12.46521739      10.30000000
H       51.11217391      13.39521739      10.30000000
O       51.35217391      15.45652174      10.30000000
H       52.31217391      15.45652174      10.30000000
H       51.11217391      16.38652174      10.30000000
O       51.35217391      18.44782609      10.30000000
H       52.31217391      18.44782609      10.30000000
H       51.11217391      19.37782609      10.30000000
O       51.35217391      21.43913043      10.30000000
H       52.31217391      21.43913043      10.30000000
H       51.11217391      22.36913043      10.30000000
O       51.35217391      24.43043478      10.30000000
H       52.31217391      24.43043478      10.30000000
H       51.11217391      25.36043478      10.30000000
O       51.35217391      27.42173913      10.30000000
H       52.31217391      27.42173913      10.30000000
H       51.11217391      28.35173913      10.30000000
O       51.35217391      30.41304348      10.30000000
H       52.31217391      30.41304348      10.30000000
H       51.11217391      31.34304348      10.30000000
O       51.35217391      33.40434783      10.30000000
H       52.31217391      33.40434783      10.30000000
H       51.11217391      34.33434783      10.30000000
O       51.35217391      36.39565217      10.30000000
H       52.31217391      36.39565217      10.30000000
H       51.11217391      37.32565217      10.30000000
O       51.35217391      39.38695652      10.30000000
H       52.31217391      39.38695652      10.30000000
H       51.11217391      40.31695652      10.30000000
O       51.35217391      42.37826087      10.30000000
H       52.31217391      42.37826087      10.30000000
H       51.11217391      43.30826087      10.30000000
O       51.35217391      45.36956522      10.30000000
H       52.31217391      45.36956522      10.30000000
H       51.11217391      46.29956522      10.30000000
O       51.35217391      48.36086957      10.30000000
H       52.31217391      48.36086957      10.30000000
H       51.11217391      49.29086957      10.30000000
O       51.35217391      51.35217391      10.30000000
H       52.31217391      51.35217391      10.30000000
H       51.11217391      52.28217391      10.30000000
O       51.35217391      54.34347826      10.30000000
H       52.31217391      54.34347826      10.30000000
H       51.11217391      55.27347826      10.30000000
O       51.35217391      57.33478261      10.30000000
H       52.31217391      57.33478261      10.30000000
H       51.11217391      58.26478261      10.30000000
O       51.35217391      60.32608696      10.30000000
H       52.31217391      60.32608696      10.30000000
H       51.11217391      61.25608696      10.30000000
O       51.35217391      63.31739130      10.30000000
H       52.31217391      63.31739130      10.30000000
H       51.11217391      64.24739130      10.30000000
O       51.35217391      66.30869565      10.30000000
H       52.31217391      66.30869565      10.30000000
H       51.11217391      67.23869565      10.30000000
O       54.34347826       0.50000000      10.30000000
H       55.30347826       0.50000000      10.30000000
H       54.10347826       1.43000000      10.30000000
O       54.34347826       3.49130435      10.30000000
H       55.30347826       3.49130435      10.30000000
H       54.10347826       4.42130435      10.30000000
O       54.34347826       6.48260870      10.30000000
H       55.30347826       6.48260870      10.30000000
H       54.10347826       7.41260870      10.30000000
O       54.34347826       9.47391304      10.30000000
H       55.30347826       9.47391304      10.30000000
H       54.10347826      10.40391304      10.30000000
O       54.34347826      12.46521739      10.30000000
H       55.30347826      12.46521739      10.30000000
H       54.10347826      13.39521739      10.30000000
O       54.34347826      15.45652174      10.30000000
H       55.30347826      15.45652174      10.30000000
H       54.10347826      16.38652174      10.30000000
O       54.34347826      18.44782609      10.30000000
H       55.30347826      18.44782609      10.30000000
H       54.10347826      19.37782609      10.30000000
O       54.34347826      21.43913043      10.30000000
H       55.30347826      21.43913043      10.30000000
H       54.10347826      22.36913043      10.30000000
O       54.34347826      24.43043478      10.30000000
H       55.30347826      24.43043478      10.30000000
H       54.10347826      25.36043478      10.30000000
O       54.34347826      27.42173913      10.30000000
H       55.30347826      27.42173913      10.30000000
H       54.10347826      28.35173913      10.30000000
O       54.34347826      30.41304348      10.30000000
H       55.30347826      30.41304348      10.30000000
H       54.10347826      31.34304348      10.30000000
O       54.34347826      33.40434783      10.30000000
H       55.30347826      33.40434783      10.30000000
H       54.10347826      34.33434783      10.30000000
O       54.34347826      36.39565217      10.30000000
H       55.30347826      36.39565217      10.30000000
H       54.10347826      37.32565217      10.30000000
O       54.34347826      39.38695652      10.30000000
H       55.30347826      39.38695652      10.30000000
H       54.10347826      40.31695652      10.30000000
O       54.34347826      42.37826087      10.30000000
H       55.30347826      42.37826087      10.30000000
H       54.10347826      43.30826087      10.30000000
O       54.34347826      45.36956522      10.30000000
H       55.30347826      45.36956522      10.30000000
H       54.10347826      46.29956522      10.30000000
O       54.34347826      48.36086957      10.30000000
H       55.30347826      48.36086957      10.30000000
H       54.10347826      49.29086957      10.30000000
O       54.34347826      51.35217391      10.30000000
H       55.30347826      51.35217391      10.30000000
H       54.10347826      52.28217391      10.30000000
O       54.34347826      54.34347826      10.30000000
H       55.30347826      54.34347826      10.30000000
H       54.10347826      55.27347826      10.30000000
O       54.34347826      57.33478261      10.30000000
H       55.30347826      57.33478261      10.30000000
H       54.10347826      58.26478261      10.30000000
O       54.34347826      60.32608696      10.30000000
H       55.30347826      60.32608696      10.30000000
H       54.10347826      61.25608696      10.30000000
O       54.34347826      63.31739130      10.30000000
H       55.30347826      63.31739130      10.30000000
H       54.10347826      64.24739130      10.30000000
O       54.34347826      66.30869565      10.30000000
H       55.30347826      66.30869565      10.30000000
H       54.10347826      67.23869565      10.30000000
O       57.33478261       0.50000000      10.30000000
H       58.29478261       0.50000000      10.30000000
H       57.09478261       1.43000000      10.30000000
O       57.33478261       3.49130435      10.30000000
H       58.29478261       3.49130435      10.30000000
H       57.09478261       4.42130435      10.30000000
O       57.33478261       6.48260870      10.30000000
H       58.29478261       6.48260870      10.30000000
H       57.09478261       7.41260870      10.30000000
O       57.33478261       9.47391304      10.30000000
H       58.29478261       9.47391304      10.30000000
H       57.09478261      10.40391304      10.30000000
O       57.33478261      12.46521739      10.30000000
H       58.29478261      12.46521739      10.30000000
H       57.09478261      13.39521739      10.30000000
O       57.33478261      15.45652174      10.30000000
H       58.29478261      15.45652174      10.30000000
H       57.09478261      16.38652174      10.30000000
O       57.33478261      18.44782609      10.30000000
H       58.29478261      18.44782609      10.30000000
H       57.09478261      19.37782609      10.30000000
O       57.33478261      21.43913043      10.30000000
H       58.29478261      21.43913043      10.30000000
H       57.09478261      22.36913043      10.30000000
O       57.33478261      24.43043478      10.30000000
H       58.29478261      24.43043478      10.30000000
H       57.09478261      25.36043478      10.30000000
O       57.33478261      27.42173913      10.30000000
H       58.29478261      27.42173913      10.30000000
H       57.09478261      28.35173913      10.30000000
O       57.33478261      30.41304348      10.30000000
H       58.29478261      30.41304348      10.30000000
H       57.09478261      31.34304348      10.30000000
O       57.33478261      33.40434783      10.30000000
H       58.29478261      33.40434783      10.30000000
H       57.09478261      34.33434783      10.30000000
O       57.33478261      36.39565217      10.30000000
H       58.29478261      36.39565217      10.30000000
H       57.09478261      37.32565217      10.30000000
O       57.33478261      39.38695652      10.30000000
H       58.29478261      39.38695652      10.30000000
H       57.09478261      40.31695652      10.30000000
O       57.33478261      42.37826087      10.30000000
H       58.29478261      42.37826087      10.30000000
H       57.09478261      43.30826087      10.30000000
O       57.33478261      45.36956522      10.30000000
H       58.29478261      45.36956522      10.30000000
H       57.09478261      46.29956522      10.30000000
O       57.33478261      48.36086957      10.30000000
H       58.29478261      48.36086957      10.30000000
H       57.09478261      49.29086957      10.30000000
O       57.33478261      51.35217391      10.30000000
H       58.29478261      51.35217391      10.30000000
H       57.09478261      52.28217391      10.30000000
O       57.33478261      54.34347826      10.30000000
H       58.29478261      54.34347826      10.30000000
H       57.09478261      55.27347826      10.30000000
O       57.33478261      57.33478261      10.30000000
H       58.29478261      57.33478261      10.30000000
H       57.09478261      58.26478261      10.30000000
O       57.33478261      60.32608696      10.30000000
H       58.29478261      60.32608696      10.30000000
H       57.09478261      61.25608696      10.30000000
O       57.33478261      63.31739130      10.30000000
H       58.29478261      63.31739130      10.30000000
H       57.09478261      64.24739130      10.30000000
O       57.33478261      66.30869565      10.30000000
H       58.29478261      66.30869565      10.30000000
H       57.09478261      67.23869565      10.30000000
O       60.32608696       0.50000000      10.30000000
H       61.28608696       0.50000000      10.30000000
H       60.08608696       1.43000000      10.30000000
O       60.32608696       3.49130435      10.30000000
H       61.28608696       3.49130435      10.30000000
H       60.08608696       4.42130435      10.30000000
O       60.32608696       6.48260870      10.30000000
H       61.28608696       6.48260870      10.30000000
H       60.08608696       7.41260870      10.30000000
O       60.32608696       9.47391304      10.30000000
H       61.28608696       9.47391304      10.30000000
H       60.08608696      10.40391304      10.30000000
O       60.32608696      12.46521739      10.30000000
H       61.28608696      12.46521739      10.30000000
H       60.08608696      13.39521739      10.30000000
O       60.32608696      15.45652174      10.30000000
H       61.28608696      15.45652174      10.30000000
H       60.08608696      16.38652174      10.30000000
O       60.32608696      18.44782609      10.30000000
H       61.28608696      18.44782609      10.30000000
H       60.08608696      19.37782609      10.30000000
O       60.32608696      21.43913043      10.30000000
H       61.28608696      21.43913043      10.30000000
H       60.08608696      22.36913043      10.30000000
O       60.32608696      24.43043478      10.30000000
H       61.28608696      24.43043478      10.30000000
H       60.08608696      25.36043478      10.30000000
O       60.32608696      27.42173913      10.30000000
H       61.28608696      27.42173913      10.30000000
H       60.08608696      28.35173913      10.30000000
O       60.32608696      30.41304348      10.30000000
H       61.28608696      30.41304348      10.30000000
H       60.08608696      31.34304348      10.30000000
O       60.32608696      33.40434783      10.30000000
H       61.28608696      33.40434783      10.30000000
H       60.08608696      34.33434783      10.30000000
O       60.32608696      36.39565217      10.30000000
H       61.28608696      36.39565217      10.30000000
H       60.08608696      37.32565217      10.30000000
O       60.32608696      39.38695652      10.30000000
H       61.28608696      39.38695652      10.30000000
H       60.08608696      40.31695652      10.30000000
O       60.32608696      42.37826087      10.30000000
H       61.28608696      42.37826087      10.30000000
H       60.08608696      43.30826087      10.30000000
O       60.32608696      45.36956522      10.30000000
H       61.28608696      45.36956522      10.30000000
H       60.08608696      46.29956522      10.30000000
O       60.32608696      48.36086957      10.30000000
H       61.28608696      48.36086957      10.30000000
H       60.08608696      49.29086957      10.30000000
O       60.32608696      51.35217391      10.30000000
H       61.28608696      51.35217391      10.30000000
H       60.08608696      52.28217391      10.30000000
O       60.32608696      54.34347826      10.30000000
H       61.28608696      54.34347826      10.30000000
H       60.08608696      55.27347826      10.30000000
O       60.32608696      57.33478261      10.30000000
H       61.28608696      57.33478261      10.30000000
H       60.08608696      58.26478261      10.30000000
O       60.32608696      60.32608696      10.30000000
H       61.28608696      60.32608696      10.30000000
H       60.08608696      61.25608696      10.30000000
O       60.32608696      63.31739130      10.30000000
H       61.28608696      63.31739130      10.30000000
H       60.08608696      64.24739130      10.30000000
O       60.32608696      66.30869565      10.30000000
H       61.28608696      66.30869565      10.30000000
H       60.08608696      67.23869565      10.30000000
O       63.31739130       0.50000000      10.30000000
H       64.27739130       0.50000000      10.30000000
H       63.07739130       1.43000000      10.30000000
O       63.31739130       3.49130435      10.30000000
H       64.27739130       3.49130435      10.30000000
H       63.07739130       4.42130435      10.30000000
O       63.31739130       6.48260870      10.30000000
H       64.27739130       6.48260870      10.30000000
H       63.07739130       7.41260870      10.30000000
O       63.31739130       9.47391304      10.30000000
H       64.27739130       9.47391304      10.30000000
H       63.07739130      10.40391304      10.30000000
O       63.31739130      12.46521739      10.30000000
H       64.27739130      12.46521739      10.30000000
H       63.07739130      13.39521739      10.30000000
O       63.31739130      15.45652174      10.30000000
H       64.27739130      15.45652174      10.30000000
H       63.07739130      16.38652174      10.30000000
O       63.31739130      18.44782609      10.30000000
H       64.27739130      18.44782609      10.30000000
H       63.07739130      19.37782609      10.30000000
O       63.31739130      21.43913043      10.30000000
H       64.27739130      21.43913043      10.30000000
H       63.07739130      22.36913043      10.30000000
O       63.31739130      24.43043478      10.30000000
H       64.27739130      24.43043478      10.30000000
H       63.07739130      25.36043478      10.30000000
O       63.31739130      27.42173913      10.30000000
H       64.27739130      27.42173913      10.30000000
H       63.07739130      28.35173913      10.30000000
O       63.31739130      30.41304348      10.30000000
H       64.27739130      30.41304348      10.30000000
H       63.07739130      31.34304348      10.30000000
O       63.31739130      33.40434783      10.30000000
H       64.27739130      33.40434783      10.30000000
H       63.07739130      34.33434783      10.30000000
O       63.31739130      36.39565217      10.30000000
H       64.27739130      36.39565217      10.30000000
H       63.07739130      37.32565217      10.30000000
O       63.31739130      39.38695652      10.30000000
H       64.27739130      39.38695652      10.30000000
H       63.07739130      40.31695652      10.30000000
O       63.31739130      42.37826087      10.30000000
H       64.27739130      42.37826087      10.30000000
H       63.07739130      43.30826087      10.30000000
O       63.31739130      45.36956522      10.30000000
H       64.27739130      45.36956522      10.30000000
H       63.07739130      46.29956522      10.30000000
O       63.31739130      48.36086957      10.30000000
H       64.27739130      48.36086957      10.30000000
H       63.07739130      49.29086957      10.30000000
O       63.31739130      51.35217391      10.30000000
H       64.27739130      51.35217391      10.30000000
H       63.07739130      52.28217391      10.30000000
O       63.31739130      54.34347826      10.30000000
H       64.27739130      54.34347826      10.30000000
H       63.07739130      55.27347826      10.30000000
O       63.31739130      57.33478261      10.30000000
H       64.27739130      57.33478261      10.30000000
H       63.07739130      58.26478261      10.30000000
O       63.31739130      60.32608696      10.30000000
H       64.27739130      60.32608696      10.30000000
H       63.07739130      61.25608696      10.30000000
O       63.31739130      63.31739130      10.30000000
H       64.27739130      63.31739130      10.30000000
H       63.07739130      64.24739130      10.30000000
O       63.31739130      66.30869565      10.30000000
H       64.27739130      66.30869565      10.30000000
H       63.07739130      67.23869565      10.30000000
O       66.30869565       0.50000000      10.30000000
H       67.26869565       0.50000000      10.30000000
H       66.06869565       1.43000000      10.30000000
O       66.30869565       3.49130435      10.30000000
H       67.26869565       3.49130435      10.30000000
H       66.06869565       4.42130435      10.30000000
O       66.30869565       6.48260870      10.30000000
H       67.26869565       6.48260870      10.30000000
H       66.06869565       7.41260870      10.30000000
O       66.30869565       9.47391304      10.30000000
H       67.26869565       9.47391304      10.30000000
H       66.06869565      10.40391304      10.30000000
O       66.30869565      12.46521739      10.30000000
H       67.26869565      12.46521739      10.30000000
H       66.06869565      13.39521739      10.30000000
O       66.30869565      15.45652174      10.30000000
H       67.26869565      15.45652174      10.30000000
H       66.06869565      16.38652174      10.30000000
O       66.30869565      18.44782609      10.30000000
H       67.26869565      18.44782609      10.30000000
H       66.06869565      19.37782609      10.30000000
O       66.30869565      21.43913043      10.30000000
H       67.26869565      21.43913043      10.30000000
H       66.06869565      22.36913043      10.30000000
O       66.30869565      24.43043478      10.30000000
H       67.26869565      24.43043478      10.30000000
H       66.06869565      25.36043478      10.30000000
O       66.30869565      27.42173913      10.30000000
H       67.26869565      27.42173913      10.30000000
H       66.06869565      28.35173913      10.30000000
O       66.30869565      30.41304348      10.30000000
H       67.26869565      30.41304348      10.30000000
H       66.06869565      31.34304348      10.30000000
O       66.30869565      33.40434783      10.30000000
H       67.26869565      33.40434783      10.30000000
H       66.06869565      34.33434783      10.30000000
O       66.30869565      36.39565217      10.30000000
H       67.26869565      36.39565217      10.30000000
H       66.06869565      37.32565217      10.30000000
O       66.30869565      39.38695652      10.30000000
H       67.26869565      39.38695652      10.30000000
H       66.06869565      40.31695652      10.30000000
O       66.30869565      42.37826087      10.30000000
H       67.26869565      42.37826087      10.30000000
H       66.06869565      43.30826087      10.30000000
O       66.30869565      45.36956522      10.30000000
H       67.26869565      45.36956522      10.30000000
H       66.06869565      46.29956522      10.30000000
O       66.30869565      48.36086957      10.30000000
H       67.26869565      48.36086957      10.30000000
H       66.06869565      49.29086957      10.30000000
O       66.30869565      51.35217391      10.30000000
H       67.26869565      51.35217391      10.30000000
H       66.06869565      52.28217391      10.30000000
O       66.30869565      54.34347826      10.30000000
H       67.26869565      54.34347826      10.30000000
H       66.06869565      55.27347826      10.30000000
O       66.30869565      57.33478261      10.30000000
H       67.26869565      57.33478261      10.30000000
H       66.06869565      58.26478261      10.30000000
O       66.30869565      60.32608696      10.30000000
H       67.26869565      60.32608696      10.30000000
H       66.06869565      61.25608696      10.30000000
O       66.30869565      63.31739130      10.30000000
H       67.26869565      63.31739130      10.30000000
H       66.06869565      64.24739130      10.30000000
O       66.30869565      66.30869565      10.30000000
H       67.26869565      66.30869565      10.30000000
H       66.06869565      67.23869565      10.30000000
O        0.50000000       0.50000000      13.30000000
H        1.46000000       0.50000000      13.30000000
H        0.26000000       1.43000000      13.30000000
O        0.50000000       3.49130435      13.30000000
H        1.46000000       3.49130435      13.30000000
H        0.26000000       4.42130435      13.30000000
O        0.50000000       6.48260870      13.30000000
H        1.46000000       6.48260870      13.30000000
H        0.26000000       7.41260870      13.30000000
O        0.50000000       9.47391304      13.30000000
H        1.46000000       9.47391304      13.30000000
H        0.26000000      10.40391304      13.30000000
O        0.50000000      12.46521739      13.30000000
H        1.46000000      12.46521739      13.30000000
H        0.26000000      13.39521739      13.30000000
O        0.50000000      15.45652174      13.30000000
H        1.46000000      15.45652174      13.30000000
H        0.26000000      16.38652174      13.30000000
O        0.50000000      18.44782609      13.30000000
H        1.46000000      18.44782609      13.30000000
H        0.26000000      19.37782609      13.30000000
O        0.50000000      21.43913043      13.30000000
H        1.46000000      21.43913043      13.30000000
H        0.26000000      22.36913043      13.30000000
O        0.50000000      24.43043478      13.30000000
H        1.46000000      24.43043478      13.30000000
H        0.26000000      25.36043478      13.30000000
O        0.50000000      27.42173913      13.30000000
H        1.46000000      27.42173913      13.30000000
H        0.26000000      28.35173913      13.30000000
O        0.50000000      30.41304348      13.30000000
H        1.46000000      30.41304348      13.30000000
H        0.26000000      31.34304348      13.30000000
O        0.50000000      33.40434783      13.30000000
H        1.46000000      33.40434783      13.30000000
H        0.26000000      34.33434783      13.30000000
O        0.50000000      36.39565217      13.30000000
H        1.46000000      36.39565217      13.30000000
H        0.26000000      37.32565217      13.30000000
O        0.50000000      39.38695652      13.30000000
H        1.46000000      39.38695652      13.30000000
H        0.26000000      40.31695652      13.30000000
O        0.50000000      42.37826087      13.30000000
H        1.46000000      42.37826087      13.30000000
H        0.26000000      43.30826087      13.30000000
O        0.50000000      45.36956522      13.30000000
H        1.46000000      45.36956522      13.30000000
H        0.26000000      46.29956522      13.30000000
O        0.50000000      48.36086957      13.30000000
H        1.46000000      48.36086957      13.30000000
H        0.26000000      49.29086957      13.30000000
O        0.50000000      51.35217391      13.30000000
H        1.46000000      51.35217391      13.30000000
H        0.26000000      52.28217391      13.30000000
O        0.50000000      54.34347826      13.30000000
H        1.46000000      54.34347826      13.30000000
H        0.26000000      55.27347826      13.30000000
O        0.50000000      57.33478261      13.30000000
H        1.46000000      57.33478261      13.30000000
H        0.26000000      58.26478261      13.30000000
O        0.50000000      60.32608696      13.30000000
H        1.46000000      60.32608696      13.30000000
H        0.26000000      61.25608696      13.30000000
O        0.50000000      63.31739130      13.30000000
H        1.46000000      63.31739130      13.30000000
H        0.26000000      64.24739130      13.30000000
O        0.50000000      66.30869565      13.30000000
H        1.46000000      66.30869565      13.30000000
H        0.26000000      67.23869565      13.30000000
O        3.49130435       0.50000000      13.30000000
H        4.45130435       0.50000000      13.30000000
H        3.25130435       1.43000000      13.30000000
O        3.49130435       3.49130435      13.30000000
H        4.45130435       3.49130435      13.30000000
H        3.25130435       4.42130435      13.30000000
O        3.49130435       6.48260870      13.30000000
H        4.45130435       6.48260870      13.30000000
H        3.25130435       7.41260870      13.30000000
O        3.49130435       9.47391304      13.30000000
H        4.45130435       9.47391304      13.30000000
H        3.25130435      10.40391304      13.30000000
O        3.49130435      12.46521739      13.30000000
H        4.45130435      12.46521739      13.30000000
H        3.25130435      13.39521739      13.30000000
O        3.49130435      15.45652174      13.30000000
H        4.45130435      15.45652174      13.30000000
H        3.25130435      16.38652174      13.30000000
O        3.49130435      18.44782609      13.30000000
H        4.45130435      18.44782609      13.30000000
H        3.25130435      19.37782609      13.30000000
O        3.49130435      21.43913043      13.30000000
H        4.45130435      21.43913043      13.30000000
H        3.25130435      22.36913043      13.30000000
O        3.49130435      24.43043478      13.30000000
H        4.45130435      24.43043478      13.30000000
H        3.25130435      25.36043478      13.30000000
O        3.49130435      27.42173913      13.30000000
H        4.45130435      27.42173913      13.30000000
H        3.25130435      28.35173913      13.30000000
O        3.49130435      30.41304348      13.30000000
H        4.45130435      30.41304348      13.30000000
H        3.25130435      31.34304348      13.30000000
O        3.49130435      33.40434783      13.30000000
H        4.45130435      33.40434783      13.30000000
H        3.25130435      34.33434783      13.30000000
O        3.49130435      36.39565217      13.30000000
H        4.45130435      36.39565217      13.30000000
H        3.25130435      37.32565217      13.30000000
O        3.49130435      39.38695652      13.30000000
H        4.45130435      39.38695652      13.30000000
H        3.25130435      40.31695652      13.30000000
O        3.49130435      42.37826087      13.30000000
H        4.45130435      42.37826087      13.30000000
H        3.25130435      43.30826087      13.30000000
O        3.49130435      45.36956522      13.30000000
H        4.45130435      45.36956522      13.30000000
H        3.25130435      46.29956522      13.30000000
O        3.49130435      48.36086957      13.30000000
H        4.45130435      48.36086957      13.30000000
H        3.25130435      49.29086957      13.30000000
O        3.49130435      51.35217391      13.30000000
H        4.45130435      51.35217391      13.30000000
H        3.25130435      52.28217391      13.30000000
O        3.49130435      54.34347826      13.30000000
H        4.45130435      54.34347826      13.30000000
H        3.25130435      55.27347826      13.30000000
O        3.49130435      57.33478261      13.30000000
H        4.45130435      57.33478261      13.30000000
H        3.25130435      58.26478261      13.30000000
O        3.49130435      60.32608696      13.30000000
H        4.45130435      60.32608696      13.30000000
H        3.25130435      61.25608696      13.30000000
O        3.49130435      63.31739130      13.30000000
H        4.45130435      63.31739130      13.30000000
H        3.25130435      64.24739130      13.30000000
O        3.49130435      66.30869565      13.30000000
H        4.45130435      66.30869565      13.30000000
H        3.25130435      67.23869565      13.30000000
O        6.48260870       0.50000000      13.30000000
H        7.44260870       0.50000000      13.30000000
H        6.24260870       1.43000000      13.30000000
O        6.48260870       3.49130435      13.30000000
H        7.44260870       3.49130435      13.30000000
H        6.24260870       4.42130435      13.30000000
O        6.48260870       6.48260870      13.30000000
H        7.44260870       6.48260870      13.30000000
H        6.24260870       7.41260870      13.30000000
O        6.48260870       9.47391304      13.30000000
H        7.44260870       9.47391304      13.30000000
H        6.24260870      10.40391304      13.30000000
O        6.48260870      12.46521739      13.30000000
H        7.44260870      12.46521739      13.30000000
H        6.24260870      13.39521739      13.30000000
O        6.48260870      15.45652174      13.30000000
H        7.44260870      15.45652174      13.30000000
H        6.24260870      16.38652174      13.30000000
O        6.48260870      18.44782609      13.30000000
H        7.44260870      18.44782609      13.30000000
H        6.24260870      19.37782609      13.30000000
O        6.48260870      21.43913043      13.30000000
H        7.44260870      21.43913043      13.30000000
H        6.24260870      22.36913043      13.30000000
O        6.48260870      24.43043478      13.30000000
H        7.44260870      24.43043478      13.30000000
H        6.24260870      25.36043478      13.30000000
O        6.48260870      27.42173913      13.30000000
H        7.44260870      27.42173913      13.30000000
H        6.24260870      28.35173913      13.30000000
O        6.48260870      30.41304348      13.30000000
H        7.44260870      30.41304348      13.30000000
H        6.24260870      31.34304348      13.30000000
O        6.48260870      33.40434783      13.30000000
H        7.44260870      33.40434783      13.30000000
H        6.24260870      34.33434783      13.30000000
O        6.48260870      36.39565217      13.30000000
H        7.44260870      36.39565217      13.30000000
H        6.24260870      37.32565217      13.30000000
O        6.48260870      39.38695652      13.30000000
H        7.44260870      39.38695652      13.30000000
H        6.24260870      40.31695652      13.30000000
O        6.48260870      42.37826087      13.30000000
H        7.44260870      42.37826087      13.30000000
H        6.24260870      43.30826087      13.30000000
O        6.48260870      45.36956522      13.30000000
H        7.44260870      45.36956522      13.30000000
H        6.24260870      46.29956522      13.30000000
O        6.48260870      48.36086957      13.30000000
H        7.44260870      48.36086957      13.30000000
H        6.24260870      49.29086957      13.30000000
O        6.48260870      51.35217391      13.30000000
H        7.44260870      51.35217391      13.30000000
H        6.24260870      52.28217391      13.30000000
O        6.48260870      54.34347826      13.30000000
H        7.44260870      54.34347826      13.30000000
H        6.24260870      55.27347826      13.30000000
O        6.48260870      57.33478261      13.30000000
H        7.44260870      57.33478261      13.30000000
H        6.24260870      58.26478261      13.30000000
O        6.48260870      60.32608696      13.30000000
H        7.44260870      60.32608696      13.30000000
H        6.24260870      61.25608696      13.30000000
O        6.48260870      63.31739130      13.30000000
H        7.44260870      63.31739130      13.30000000
H        6.24260870      64.24739130      13.30000000
O        6.48260870      66.30869565      13.30000000
H        7.44260870      66.30869565      13.30000000
H        6.24260870      67.23869565      13.30000000
O        9.47391304       0.50000000      13.30000000
H       10.43391304       0.50000000      13.30000000
H        9.23391304       1.43000000      13.30000000
O        9.47391304       3.49130435      13.30000000
H       10.43391304       3.49130435      13.30000000
H        9.23391304       4.42130435      13.30000000
O        9.47391304       6.48260870      13.30000000
H       10.43391304       6.48260870      13.30000000
H        9.23391304       7.41260870      13.30000000
O        9.47391304       9.47391304      13.30000000
H       10.43391304       9.47391304      13.30000000
H        9.23391304      10.40391304      13.30000000
O        9.47391304      12.46521739      13.30000000
H       10.43391304      12.46521739      13.30000000
H        9.23391304      13.39521739      13.30000000
O        9.47391304      15.45652174      13.30000000
H       10.43391304      15.45652174      13.30000000
H        9.23391304      16.38652174      13.30000000
O        9.47391304      18.44782609      13.30000000
H       10.43391304      18.44782609      13.30000000
H        9.23391304      19.37782609      13.30000000
O        9.47391304      21.43913043      13.30000000
H       10.43391304      21.43913043      13.30000000
H        9.23391304      22.36913043      13.30000000
O        9.47391304      24.43043478      13.30000000
H       10.43391304      24.43043478      13.30000000
H        9.23391304      25.36043478      13.30000000
O        9.47391304      27.42173913      13.30000000
H       10.43391304      27.42173913      13.30000000
H        9.23391304      28.35173913      13.30000000
O        9.47391304      30.41304348      13.30000000
H       10.43391304      30.41304348      13.30000000
H        9.23391304      31.34304348      13.30000000
O        9.47391304      33.40434783      13.30000000
H       10.43391304      33.40434783      13.30000000
H        9.23391304      34.33434783      13.30000000
O        9.47391304      36.39565217      13.30000000
H       10.43391304      36.39565217      13.30000000
H        9.23391304      37.32565217      13.30000000
O        9.47391304      39.38695652      13.30000000
H       10.43391304      39.38695652      13.30000000
H        9.23391304      40.31695652      13.30000000
O        9.47391304      42.37826087      13.30000000
H       10.43391304      42.37826087      13.30000000
H        9.23391304      43.30826087      13.30000000
O        9.47391304      45.36956522      13.30000000
H       10.43391304      45.36956522      13.30000000
H        9.23391304      46.29956522      13.30000000
O        9.47391304      48.36086957      13.30000000
H       10.43391304      48.36086957      13.30000000
H        9.23391304      49.29086957      13.30000000
O        9.47391304      51.35217391      13.30000000
H       10.43391304      51.35217391      13.30000000
H        9.23391304      52.28217391      13.30000000
O        9.47391304      54.34347826      13.30000000
H       10.43391304      54.34347826      13.30000000
H        9.23391304      55.27347826      13.30000000
O        9.47391304      57.33478261      13.30000000
H       10.43391304      57.33478261      13.30000000
H        9.23391304      58.26478261      13.30000000
O        9.47391304      60.32608696      13.30000000
H       10.43391304      60.32608696      13.30000000
H        9.23391304      61.25608696      13.30000000
O        9.47391304      63.31739130      13.30000000
H       10.43391304      63.31739130      13.30000000
H        9.23391304      64.24739130      13.30000000
O        9.47391304      66.30869565      13.30000000
H       10.43391304      66.30869565      13.30000000
H        9.23391304      67.23869565      13.30000000
O       12.46521739       0.50000000      13.30000000
H       13.42521739       0.50000000      13.30000000
H       12.22521739       1.43000000      13.30000000
O       12.46521739       3.49130435      13.30000000
H       13.42521739       3.49130435      13.30000000
H       12.22521739       4.42130435      13.30000000
O       12.46521739       6.48260870      13.30000000
H       13.42521739       6.48260870      13.30000000
H       12.22521739       7.41260870      13.30000000
O       12.46521739       9.47391304      13.30000000
H       13.42521739       9.47391304      13.30000000
H       12.22521739      10.40391304      13.30000000
O       12.46521739      12.46521739      13.30000000
H       13.42521739      12.46521739      13.30000000
H       12.22521739      13.39521739      13.30000000
O       12.46521739      15.45652174      13.30000000
H       13.42521739      15.45652174      13.30000000
H       12.22521739      16.38652174      13.30000000
O       12.46521739      18.44782609      13.30000000
H       13.42521739      18.44782609      13.30000000
H       12.22521739      19.37782609      13.30000000
O       12.46521739      21.43913043      13.30000000
H       13.42521739      21.43913043      13.30000000
H       12.22521739      22.36913043      13.30000000
O       12.46521739      24.43043478      13.30000000
H       13.42521739      24.43043478      13.30000000
H       12.22521739      25.36043478      13.30000000
O       12.46521739      27.42173913      13.30000000
H       13.42521739      27.42173913      13.30000000
H       12.22521739      28.35173913      13.30000000
O       12.46521739      30.41304348      13.30000000
H       13.42521739      30.41304348      13.30000000
H       12.22521739      31.34304348      13.30000000
O       12.46521739      33.40434783      13.30000000
H       13.42521739      33.40434783      13.30000000
H       12.22521739      34.33434783      13.30000000
O       12.46521739      36.39565217      13.30000000
H       13.42521739      36.39565217      13.30000000
H       12.22521739      37.32565217      13.30000000
O       12.46521739      39.38695652      13.30000000
H       13.42521739      39.38695652      13.30000000
H       12.22521739      40.31695652      13.30000000
O       12.46521739      42.37826087      13.30000000
H       13.42521739      42.37826087      13.30000000
H       12.22521739      43.30826087      13.30000000
O       12.46521739      45.36956522      13.30000000
H       13.42521739      45.36956522      13.30000000
H       12.22521739      46.29956522      13.30000000
O       12.46521739      48.36086957      13.30000000
H       13.42521739      48.36086957      13.30000000
H       12.22521739      49.29086957      13.30000000
O       12.46521739      51.35217391      13.30000000
H       13.42521739      51.35217391      13.30000000
H       12.22521739      52.28217391      13.30000000
O       12.46521739      54.34347826      13.30000000
H       13.42521739      54.34347826      13.30000000
H       12.22521739      55.27347826      13.30000000
O       12.46521739      57.33478261      13.30000000
H       13.42521739      57.33478261      13.30000000
H       12.22521739      58.26478261      13.30000000
O       12.46521739      60.32608696      13.30000000
H       13.42521739      60.32608696      13.30000000
H       12.22521739      61.25608696      13.30000000
O       12.46521739      63.31739130      13.30000000
H       13.42521739      63.31739130      13.30000000
H       12.22521739      64.24739130      13.30000000
O       12.46521739      66.30869565      13.30000000
H       13.42521739      66.30869565      13.30000000
H       12.22521739      67.23869565      13.30000000
O       15.45652174       0.50000000      13.30000000
H       16.41652174       0.50000000      13.30000000
H       15.21652174       1.43000000      13.30000000
O       15.45652174       3.49130435      13.30000000
H       16.41652174       3.49130435      13.30000000
H       15.21652174       4.42130435      13.30000000
O       15.45652174       6.48260870      13.30000000
H       16.41652174       6.48260870      13.30000000
H       15.21652174       7.41260870      13.30000000
O       15.45652174       9.47391304      13.30000000
H       16.41652174       9.47391304      13.30000000
H       15.21652174      10.40391304      13.30000000
O       15.45652174      12.46521739      13.30000000
H       16.41652174      12.46521739      13.30000000
H       15.21652174      13.39521739      13.30000000
O       15.45652174      15.45652174      13.30000000
H       16.41652174      15.45652174      13.30000000
H       15.21652174      16.38652174      13.30000000
O       15.45652174      18.44782609      13.30000000
H       16.41652174      18.44782609      13.30000000
H       15.21652174      19.37782609      13.30000000
O       15.45652174      21.43913043      13.30000000
H       16.41652174      21.43913043      13.30000000
H       15.21652174      22.36913043      13.30000000
O       15.45652174      24.43043478      13.30000000
H       16.41652174      24.43043478      13.30000000
H       15.21652174      25.36043478      13.30000000
O       15.45652174      27.42173913      13.30000000
H       16.41652174      27.42173913      13.30000000
H       15.21652174      28.35173913      13.30000000
O       15.45652174      30.41304348      13.30000000
H       16.41652174      30.41304348      13.30000000
H       15.21652174      31.34304348      13.30000000
O       15.45652174      33.40434783      13.30000000
H       16.41652174      33.40434783      13.30000000
H       15.21652174      34.33434783      13.30000000
O       15.45652174      36.39565217      13.30000000
H       16.41652174      36.39565217      13.30000000
H       15.21652174      37.32565217      13.30000000
O       15.45652174      39.38695652      13.30000000
H       16.41652174      39.38695652      13.30000000
H       15.21652174      40.31695652      13.30000000
O       15.45652174      42.37826087      13.30000000
H       16.41652174      42.37826087      13.30000000
H       15.21652174      43.30826087      13.30000000
O       15.45652174      45.36956522      13.30000000
H       16.41652174      45.36956522      13.30000000
H       15.21652174      46.29956522      13.30000000
O       15.45652174      48.36086957      13.30000000
H       16.41652174      48.36086957      13.30000000
H       15.21652174      49.29086957      13.30000000
O       15.45652174      51.35217391      13.30000000
H       16.41652174      51.35217391      13.30000000
H       15.21652174      52.28217391      13.30000000
O       15.45652174      54.34347826      13.30000000
H       16.41652174      54.34347826      13.30000000
H       15.21652174      55.27347826      13.30000000
O       15.45652174      57.33478261      13.30000000
H       16.41652174      57.33478261      13.30000000
H       15.21652174      58.26478261      13.30000000
O       15.45652174      60.32608696      13.30000000
H       16.41652174      60.32608696      13.30000000
H       15.21652174      61.25608696      13.30000000
O       15.45652174      63.31739130      13.30000000
H       16.41652174      63.31739130      13.30000000
H       15.21652174      64.24739130      13.30000000
O       15.45652174      66.30869565      13.30000000
H       16.41652174      66.30869565      13.30000000
H       15.21652174      67.23869565      13.30000000
O       18.44782609       0.50000000      13.30000000
H       19.40782609       0.50000000      13.30000000
H       18.20782609       1.43000000      13.30000000
O       18.44782609       3.49130435      13.30000000
H       19.40782609       3.49130435      13.30000000
H       18.20782609       4.42130435      13.30000000
O       18.44782609       6.48260870      13.30000000
H       19.40782609       6.48260870      13.30000000
H       18.20782609       7.41260870      13.30000000
O       18.44782609       9.47391304      13.30000000
H       19.40782609       9.47391304      13.30000000
H       18.20782609      10.40391304      13.30000000
O       18.44782609      12.46521739      13.30000000
H       19.40782609      12.46521739      13.30000000
H       18.20782609      13.39521739      13.30000000
O       18.44782609      15.45652174      13.30000000
H       19.40782609      15.45652174      13.30000000
H       18.20782609      16.38652174      13.30000000
O       18.44782609      18.44782609      13.30000000
H       19.40782609      18.44782609      13.30000000
H       18.20782609      19.37782609      13.30000000
O       18.44782609      21.43913043      13.30000000
H       19.40782609      21.43913043      13.30000000
H       18.20782609      22.36913043      13.30000000
O       18.44782609      24.43043478      13.30000000
H       19.40782609      24.43043478      13.30000000
H       18.20782609      25.36043478      13.30000000
O       18.44782609      27.42173913      13.30000000
H       19.40782609      27.42173913      13.30000000
H       18.20782609      28.35173913      13.30000000
O       18.44782609      30.41304348      13.30000000
H       19.40782609      30.41304348      13.30000000
H       18.20782609      31.34304348      13.30000000
O       18.44782609      33.40434783      13.30000000
H       19.40782609      33.40434783      13.30000000
H       18.20782609      34.33434783      13.30000000
O       18.44782609      36.39565217      13.30000000
H       19.40782609      36.39565217      13.30000000
H       18.20782609      37.32565217      13.30000000
O       18.44782609      39.38695652      13.30000000
H       19.40782609      39.38695652      13.30000000
H       18.20782609      40.31695652      13.30000000
O       18.44782609      42.37826087      13.30000000
H       19.40782609      42.37826087      13.30000000
H       18.20782609      43.30826087      13.30000000
O       18.44782609      45.36956522      13.30000000
H       19.40782609      45.36956522      13.30000000
H       18.20782609      46.29956522      13.30000000
O       18.44782609      48.36086957      13.30000000
H       19.40782609      48.36086957      13.30000000
H       18.20782609      49.29086957      13.30000000
O       18.44782609      51.35217391      13.30000000
H       19.40782609      51.35217391      13.30000000
H       18.20782609      52.28217391      13.30000000
O       18.44782609      54.34347826      13.30000000
H       19.40782609      54.34347826      13.30000000
H       18.20782609      55.27347826      13.30000000
O       18.44782609      57.33478261      13.30000000
H       19.40782609      57.33478261      13.30000000
H       18.20782609      58.26478261      13.30000000
O       18.44782609      60.32608696      13.30000000
H       19.40782609      60.32608696      13.30000000
H       18.20782609      61.25608696      13.30000000
O       18.44782609      63.31739130      13.30000000
H       19.40782609      63.31739130      13.30000000
H       18.20782609      64.24739130      13.30000000
O       18.44782609      66.30869565      13.30000000
H       19.40782609      66.30869565      13.30000000
H       18.20782609      67.23869565      13.30000000
O       21.43913043       0.50000000      13.30000000
H       22.39913043       0.50000000      13.30000000
H       21.19913043       1.43000000      13.30000000
O       21.43913043       3.49130435      13.30000000
H       22.39913043       3.49130435      13.30000000
H       21.19913043       4.42130435      13.30000000
O       21.43913043       6.48260870      13.30000000
H       22.39913043       6.48260870      13.30000000
H       21.19913043       7.41260870      13.30000000
O       21.43913043       9.47391304      13.30000000
H       22.39913043       9.47391304      13.30000000
H       21.19913043      10.40391304      13.30000000
O       21.43913043      12.46521739      13.30000000
H       22.39913043      12.46521739      13.30000000
H       21.19913043      13.39521739      13.30000000
O       21.43913043      15.45652174      13.30000000
H       22.39913043      15.45652174      13.30000000
H       21.19913043      16.38652174      13.30000000
O       21.43913043      18.44782609      13.30000000
H       22.39913043      18.44782609      13.30000000
H       21.19913043      19.37782609      13.30000000
O       21.43913043      21.43913043      13.30000000
H       22.39913043      21.43913043      13.30000000
H       21.19913043      22.36913043      13.30000000
O       21.43913043      24.43043478      13.30000000
H       22.39913043      24.43043478      13.30000000
H       21.19913043      25.36043478      13.30000000
O       21.43913043      27.42173913      13.30000000
H       22.39913043      27.42173913      13.30000000
H       21.19913043      28.35173913      13.30000000
O       21.43913043      30.41304348      13.30000000
H       22.39913043      30.41304348      13.30000000
H       21.19913043      31.34304348      13.30000000
O       21.43913043      33.40434783      13.30000000
H       22.39913043      33.40434783      13.30000000
H       21.19913043      34.33434783      13.30000000
O       21.43913043      36.39565217      13.30000000
H       22.39913043      36.39565217      13.30000000
H       21.19913043      37.32565217      13.30000000
O       21.43913043      39.38695652      13.30000000
H       22.39913043      39.38695652      13.30000000
H       21.19913043      40.31695652      13.30000000
O       21.43913043      42.37826087      13.30000000
H       22.39913043      42.37826087      13.30000000
H       21.19913043      43.30826087      13.30000000
O       21.43913043      45.36956522      13.30000000
H       22.39913043      45.36956522      13.30000000
H       21.19913043      46.29956522      13.30000000
O       21.43913043      48.36086957      13.30000000
H       22.39913043      48.36086957      13.30000000
H       21.19913043      49.29086957      13.30000000
O       21.43913043      51.35217391      13.30000000
H       22.39913043      51.35217391      13.30000000
H       21.19913043      52.28217391      13.30000000
O       21.43913043      54.34347826      13.30000000
H       22.39913043      54.34347826      13.30000000
H       21.19913043      55.27347826      13.30000000
O       21.43913043      57.33478261      13.30000000
H       22.39913043      57.33478261      13.30000000
H       21.19913043      58.26478261      13.30000000
O       21.43913043      60.32608696      13.30000000
H       22.39913043      60.32608696      13.30000000
H       21.19913043      61.25608696      13.30000000
O       21.43913043      63.31739130      13.30000000
H       22.39913043      63.31739130      13.30000000
H       21.19913043      64.24739130      13.30000000
O       21.43913043      66.30869565      13.30000000
H       22.39913043      66.30869565      13.30000000
H       21.19913043      67.23869565      13.30000000
O       24.43043478       0.50000000      13.30000000
H       25.39043478       0.50000000      13.30000000
H       24.19043478       1.43000000      13.30000000
O       24.43043478       3.49130435      13.30000000
H       25.39043478       3.49130435      13.30000000
H       24.19043478       4.42130435      13.30000000
O       24.43043478       6.48260870      13.30000000
H       25.39043478       6.48260870      13.30000000
H       24.19043478       7.41260870      13.30000000
O       24.43043478       9.47391304      13.30000000
H       25.39043478       9.47391304      13.30000000
H       24.19043478      10.40391304      13.30000000
O       24.43043478      12.46521739      13.30000000
H       25.39043478      12.46521739      13.30000000
H       24.19043478      13.39521739      13.30000000
O       24.43043478      15.45652174      13.30000000
H       25.39043478      15.45652174      13.30000000
H       24.19043478      16.38652174      13.30000000
O       24.43043478      18.44782609      13.30000000
H       25.39043478      18.44782609      13.30000000
H       24.19043478      19.37782609      13.30000000
O       24.43043478      21.43913043      13.30000000
H       25.39043478      21.43913043      13.30000000
H       24.19043478      22.36913043      13.30000000
O       24.43043478      24.43043478      13.30000000
H       25.39043478      24.43043478      13.30000000
H       24.19043478      25.36043478      13.30000000
O       24.43043478      27.42173913      13.30000000
H       25.39043478      27.42173913      13.30000000
H       24.19043478      28.35173913      13.30000000
O       24.43043478      30.41304348      13.30000000
H       25.39043478      30.41304348      13.30000000
H       24.19043478      31.34304348      13.30000000
O       24.43043478      33.40434783      13.30000000
H       25.39043478      33.40434783      13.30000000
H       24.19043478      34.33434783      13.30000000
O       24.43043478      36.39565217      13.30000000
H       25.39043478      36.39565217      13.30000000
H       24.19043478      37.32565217      13.30000000
O       24.43043478      39.38695652      13.30000000
H       25.39043478      39.38695652      13.30000000
H       24.19043478      40.31695652      13.30000000
O       24.43043478      42.37826087      13.30000000
H       25.39043478      42.37826087      13.30000000
H       24.19043478      43.30826087      13.30000000
O       24.43043478      45.36956522      13.30000000
H       25.39043478      45.36956522      13.30000000
H       24.19043478      46.29956522      13.30000000
O       24.43043478      48.36086957      13.30000000
H       25.39043478      48.36086957      13.30000000
H       24.19043478      49.29086957      13.30000000
O       24.43043478      51.35217391      13.30000000
H       25.39043478      51.35217391      13.30000000
H       24.19043478      52.28217391      13.30000000
O       24.43043478      54.34347826      13.30000000
H       25.39043478      54.34347826      13.30000000
H       24.19043478      55.27347826      13.30000000
O       24.43043478      57.33478261      13.30000000
H       25.39043478      57.33478261      13.30000000
H       24.19043478      58.26478261      13.30000000
O       24.43043478      60.32608696      13.30000000
H       25.39043478      60.32608696      13.30000000
H       24.19043478      61.25608696      13.30000000
O       24.43043478      63.31739130      13.30000000
H       25.39043478      63.31739130      13.30000000
H       24.19043478      64.24739130      13.30000000
O       24.43043478      66.30869565      13.30000000
H       25.39043478      66.30869565      13.30000000
H       24.19043478      67.23869565      13.30000000
O       27.42173913       0.50000000      13.30000000
H       28.38173913       0.50000000      13.30000000
H       27.18173913       1.43000000      13.30000000
O       27.42173913       3.49130435      13.30000000
H       28.38173913       3.49130435      13.30000000
H       27.18173913       4.42130435      13.30000000
O       27.42173913       6.48260870      13.30000000
H       28.38173913       6.48260870      13.30000000
H       27.18173913       7.41260870      13.30000000
O       27.42173913       9.47391304      13.30000000
H       28.38173913       9.47391304      13.30000000
H       27.18173913      10.40391304      13.30000000
O       27.42173913      12.46521739      13.30000000
H       28.38173913      12.46521739      13.30000000
H       27.18173913      13.39521739      13.30000000
O       27.42173913      15.45652174      13.30000000
H       28.38173913      15.45652174      13.30000000
H       27.18173913      16.38652174      13.30000000
O       27.42173913      18.44782609      13.30000000
H       28.38173913      18.44782609      13.30000000
H       27.18173913      19.37782609      13.30000000
O       27.42173913      21.43913043      13.30000000
H       28.38173913      21.43913043      13.30000000
H       27.18173913      22.36913043      13.30000000
O       27.42173913      24.43043478      13.30000000
H       28.38173913      24.43043478      13.30000000
H       27.18173913      25.36043478      13.30000000
O       27.42173913      27.42173913      13.30000000
H       28.38173913      27.42173913      13.30000000
H       27.18173913      28.35173913      13.30000000
O       27.42173913      30.41304348      13.30000000
H       28.38173913      30.41304348      13.30000000
H       27.18173913      31.34304348      13.30000000
O       27.42173913      33.40434783      13.30000000
H       28.38173913      33.40434783      13.30000000
H       27.18173913      34.33434783      13.30000000
O       27.42173913      36.39565217      13.30000000
H       28.38173913      36.39565217      13.30000000
H       27.18173913      37.32565217      13.30000000
O       27.42173913      39.38695652      13.30000000
H       28.38173913      39.38695652      13.30000000
H       27.18173913      40.31695652      13.30000000
O       27.42173913      42.37826087      13.30000000
H       28.38173913      42.37826087      13.30000000
H       27.18173913      43.30826087      13.30000000
O       27.42173913      45.36956522      13.30000000
H       28.38173913      45.36956522      13.30000000
H       27.18173913      46.29956522      13.30000000
O       27.42173913      48.36086957      13.30000000
H       28.38173913      48.36086957      13.30000000
H       27.18173913      49.29086957      13.30000000
O       27.42173913      51.35217391      13.30000000
H       28.38173913      51.35217391      13.30000000
H       27.18173913      52.28217391      13.30000000
O       27.42173913      54.34347826      13.30000000
H       28.38173913      54.34347826      13.30000000
H       27.18173913      55.27347826      13.30000000
O       27.42173913      57.33478261      13.30000000
H       28.38173913      57.33478261      13.30000000
H       27.18173913      58.26478261      13.30000000
O       27.42173913      60.32608696      13.30000000
H       28.38173913      60.32608696      13.30000000
H       27.18173913      61.25608696      13.30000000
O       27.42173913      63.31739130      13.30000000
H       28.38173913      63.31739130      13.30000000
H       27.18173913      64.24739130      13.30000000
O       27.42173913      66.30869565      13.30000000
H       28.38173913      66.30869565      13.30000000
H       27.18173913      67.23869565      13.30000000
O       30.41304348       0.50000000      13.30000000
H       31.37304348       0.50000000      13.30000000
H       30.17304348       1.43000000      13.30000000
O       30.41304348       3.49130435      13.30000000
H       31.37304348       3.49130435      13.30000000
H       30.17304348       4.42130435      13.30000000
O       30.41304348       6.48260870      13.30000000
H       31.37304348       6.48260870      13.30000000
H       30.17304348       7.41260870      13.30000000
O       30.41304348       9.47391304      13.30000000
H       31.37304348       9.47391304      13.30000000
H       30.17304348      10.40391304      13.30000000
O       30.41304348      12.46521739      13.30000000
H       31.37304348      12.46521739      13.30000000
H       30.17304348      13.39521739      13.30000000
O       30.41304348      15.45652174      13.30000000
H       31.37304348      15.45652174      13.30000000
H       30.17304348      16.38652174      13.30000000
O       30.41304348      18.44782609      13.30000000
H       31.37304348      18.44782609      13.30000000
H       30.17304348      19.37782609      13.30000000
O       30.41304348      21.43913043      13.30000000
H       31.37304348      21.43913043      13.30000000
H       30.17304348      22.36913043      13.30000000
O       30.41304348      24.43043478      13.30000000
H       31.37304348      24.43043478      13.30000000
H       30.17304348      25.36043478      13.30000000
O       30.41304348      27.42173913      13.30000000
H       31.37304348      27.42173913      13.30000000
H       30.17304348      28.35173913      13.30000000
O       30.41304348      30.41304348      13.30000000
H       31.37304348      30.41304348      13.30000000
H       30.17304348      31.34304348      13.30000000
O       30.41304348      33.40434783      13.30000000
H       31.37304348      33.40434783      13.30000000
H       30.17304348      34.33434783      13.30000000
O       30.41304348      36.39565217      13.30000000
H       31.37304348      36.39565217      13.30000000
H       30.17304348      37.32565217      13.30000000
O       30.41304348      39.38695652      13.30000000
H       31.37304348      39.38695652      13.30000000
H       30.17304348      40.31695652      13.30000000
O       30.41304348      42.37826087      13.30000000
H       31.37304348      42.37826087      13.30000000
H       30.17304348      43.30826087      13.30000000
O       30.41304348      45.36956522      13.30000000
H       31.37304348      45.36956522      13.30000000
H       30.17304348      46.29956522      13.30000000
O       30.41304348      48.36086957      13.30000000
H       31.37304348      48.36086957      13.30000000
H       30.17304348      49.29086957      13.30000000
O       30.41304348      51.35217391      13.30000000
H       31.37304348      51.35217391      13.30000000
H       30.17304348      52.28217391      13.30000000
O       30.41304348      54.34347826      13.30000000
H       31.37304348      54.34347826      13.30000000
H       30.17304348      55.27347826      13.30000000
O       30.41304348      57.33478261      13.30000000
H       31.37304348      57.33478261      13.30000000
H       30.17304348      58.26478261      13.30000000
O       30.41304348      60.32608696      13.30000000
H       31.37304348      60.32608696      13.30000000
H       30.17304348      61.25608696      13.30000000
O       30.41304348      63.31739130      13.30000000
H       31.37304348      63.31739130      13.30000000
H       30.17304348      64.24739130      13.30000000
O       30.41304348      66.30869565      13.30000000
H       31.37304348      66.30869565      13.30000000
H       30.17304348      67.23869565      13.30000000
O       33.40434783       0.50000000      13.30000000
H       34.36434783       0.50000000      13.30000000
H       33.16434783       1.43000000      13.30000000
O       33.40434783       3.49130435      13.30000000
H       34.36434783       3.49130435      13.30000000
H       33.16434783       4.42130435      13.30000000
O       33.40434783       6.48260870      13.30000000
H       34.36434783       6.48260870      13.30000000
H       33.16434783       7.41260870      13.30000000
O       33.40434783       9.47391304      13.30000000
H       34.36434783       9.47391304      13.30000000
H       33.16434783      10.40391304      13.30000000
O       33.40434783      12.46521739      13.30000000
H       34.36434783      12.46521739      13.30000000
H       33.16434783      13.39521739      13.30000000
O       33.40434783      15.45652174      13.30000000
H       34.36434783      15.45652174      13.30000000
H       33.16434783      16.38652174      13.30000000
O       33.40434783      18.44782609      13.30000000
H       34.36434783      18.44782609      13.30000000
H       33.16434783      19.37782609      13.30000000
O       33.40434783      21.43913043      13.30000000
H       34.36434783      21.43913043      13.30000000
H       33.16434783      22.36913043      13.30000000
O       33.40434783      24.43043478      13.30000000
H       34.36434783      24.43043478      13.30000000
H       33.16434783      25.36043478      13.30000000
O       33.40434783      27.42173913      13.30000000
H       34.36434783      27.42173913      13.30000000
H       33.16434783      28.35173913      13.30000000
O       33.40434783      30.41304348      13.30000000
H       34.36434783      30.41304348      13.30000000
H       33.16434783      31.34304348      13.30000000
O       33.40434783      33.40434783      13.30000000
H       34.36434783      33.40434783      13.30000000
H       33.16434783      34.33434783      13.30000000
O       33.40434783      36.39565217      13.30000000
H       34.36434783      36.39565217      13.30000000
H       33.16434783      37.32565217      13.30000000
O       33.40434783      39.38695652      13.30000000
H       34.36434783      39.38695652      13.30000000
H       33.16434783      40.31695652      13.30000000
O       33.40434783      42.37826087      13.30000000
H       34.36434783      42.37826087      13.30000000
H       33.16434783      43.30826087      13.30000000
O       33.40434783      45.36956522      13.30000000
H       34.36434783      45.36956522      13.30000000
H       33.16434783      46.29956522      13.30000000
O       33.40434783      48.36086957      13.30000000
H       34.36434783      48.36086957      13.30000000
H       33.16434783      49.29086957      13.30000000
O       33.40434783      51.35217391      13.30000000
H       34.36434783      51.35217391      13.30000000
H       33.16434783      52.28217391      13.30000000
O       33.40434783      54.34347826      13.30000000
H       34.36434783      54.34347826      13.30000000
H       33.16434783      55.27347826      13.30000000
O       33.40434783      57.33478261      13.30000000
H       34.36434783      57.33478261      13.30000000
H       33.16434783      58.26478261      13.30000000
O       33.40434783      60.32608696      13.30000000
H       34.36434783      60.32608696      13.30000000
H       33.16434783      61.25608696      13.30000000
O       33.40434783      63.31739130      13.30000000
H       34.36434783      63.31739130      13.30000000
H       33.16434783      64.24739130      13.30000000
O       33.40434783      66.30869565      13.30000000
H       34.36434783      66.30869565      13.30000000
H       33.16434783      67.23869565      13.30000000
O       36.39565217       0.50000000      13.30000000
H       37.35565217       0.50000000      13.30000000
H       36.15565217       1.43000000      13.30000000
O       36.39565217       3.49130435      13.30000000
H       37.35565217       3.49130435      13.30000000
H       36.15565217       4.42130435      13.30000000
O       36.39565217       6.48260870      13.30000000
H       37.35565217       6.48260870      13.30000000
H       36.15565217       7.41260870      13.30000000
O       36.39565217       9.47391304      13.30000000
H       37.35565217       9.47391304      13.30000000
H       36.15565217      10.40391304      13.30000000
O       36.39565217      12.46521739      13.30000000
H       37.35565217      12.46521739      13.30000000
H       36.15565217      13.39521739      13.30000000
O       36.39565217      15.45652174      13.30000000
H       37.35565217      15.45652174      13.30000000
H       36.15565217      16.38652174      13.30000000
O       36.39565217      18.44782609      13.30000000
H       37.35565217      18.44782609      13.30000000
H       36.15565217      19.37782609      13.30000000
O       36.39565217      21.43913043      13.30000000
H       37.35565217      21.43913043      13.30000000
H       36.15565217      22.36913043      13.30000000
O       36.39565217      24.43043478      13.30000000
H       37.35565217      24.43043478      13.30000000
H       36.15565217      25.36043478      13.30000000
O       36.39565217      27.42173913      13.30000000
H       37.35565217      27.42173913      13.30000000
H       36.15565217      28.35173913      13.30000000
O       36.39565217      30.41304348      13.30000000
H       37.35565217      30.41304348      13.30000000
H       36.15565217      31.34304348      13.30000000
O       36.39565217      33.40434783      13.30000000
H       37.35565217      33.40434783      13.30000000
H       36.15565217      34.33434783      13.30000000
O       36.39565217      36.39565217      13.30000000
H       37.35565217      36.39565217      13.30000000
H       36.15565217      37.32565217      13.30000000
O       36.39565217      39.38695652      13.30000000
H       37.35565217      39.38695652      13.30000000
H       36.15565217      40.31695652      13.30000000
O       36.39565217      42.37826087      13.30000000
H       37.35565217      42.37826087      13.30000000
H       36.15565217      43.30826087      13.30000000
O       36.39565217      45.36956522      13.30000000
H       37.35565217      45.36956522      13.30000000
H       36.15565217      46.29956522      13.30000000
O       36.39565217      48.36086957      13.30000000
H       37.35565217      48.36086957      13.30000000
H       36.15565217      49.29086957      13.30000000
O       36.39565217      51.35217391      13.30000000
H       37.35565217      51.35217391      13.30000000
H       36.15565217      52.28217391      13.30000000
O       36.39565217      54.34347826      13.30000000
H       37.35565217      54.34347826      13.30000000
H       36.15565217      55.27347826      13.30000000
O       36.39565217      57.33478261      13.30000000
H       37.35565217      57.33478261      13.30000000
H       36.15565217      58.26478261      13.30000000
O       36.39565217      60.32608696      13.30000000
H       37.35565217      60.32608696      13.30000000
H       36.15565217      61.25608696      13.30000000
O       36.39565217      63.31739130      13.30000000
H       37.35565217      63.31739130      13.30000000
H       36.15565217      64.24739130      13.30000000
O       36.39565217      66.30869565      13.30000000
H       37.35565217      66.30869565      13.30000000
H       36.15565217      67.23869565      13.30000000
O       39.38695652       0.50000000      13.30000000
H       40.34695652       0.50000000      13.30000000
H       39.14695652       1.43000000      13.30000000
O       39.38695652       3.49130435      13.30000000
H       40.34695652       3.49130435      13.30000000
H       39.14695652       4.42130435      13.30000000
O       39.38695652       6.48260870      13.30000000
H       40.34695652       6.48260870      13.30000000
H       39.14695652       7.41260870      13.30000000
O       39.38695652       9.47391304      13.30000000
H       40.34695652       9.47391304      13.30000000
H       39.14695652      10.40391304      13.30000000
O       39.38695652      12.46521739      13.30000000
H       40.34695652      12.46521739      13.30000000
H       39.14695652      13.39521739      13.30000000
O       39.38695652      15.45652174      13.30000000
H       40.34695652      15.45652174      13.30000000
H       39.14695652      16.38652174      13.30000000
O       39.38695652      18.44782609      13.30000000
H       40.34695652      18.44782609      13.30000000
H       39.14695652      19.37782609      13.30000000
O       39.38695652      21.43913043      13.30000000
H       40.34695652      21.43913043      13.30000000
H       39.14695652      22.36913043      13.30000000
O       39.38695652      24.43043478      13.30000000
H       40.34695652      24.43043478      13.30000000
H       39.14695652      25.36043478      13.30000000
O       39.38695652      27.42173913      13.30000000
H       40.34695652      27.42173913      13.30000000
H       39.14695652      28.35173913      13.30000000
O       39.38695652      30.41304348      13.30000000
H       40.34695652      30.41304348      13.30000000
H       39.14695652      31.34304348      13.30000000
O       39.38695652      33.40434783      13.30000000
H       40.34695652      33.40434783      13.30000000
H       39.14695652      34.33434783      13.30000000
O       39.38695652      36.39565217      13.30000000
H       40.34695652      36.39565217      13.30000000
H       39.14695652      37.32565217      13.30000000
O       39.38695652      39.38695652      13.30000000
H       40.34695652      39.38695652      13.30000000
H       39.14695652      40.31695652      13.30000000
O       39.38695652      42.37826087      13.30000000
H       40.34695652      42.37826087      13.30000000
H       39.14695652      43.30826087      13.30000000
O       39.38695652      45.36956522      13.30000000
H       40.34695652      45.36956522      13.30000000
H       39.14695652      46.29956522      13.30000000
O       39.38695652      48.36086957      13.30000000
H       40.34695652      48.36086957      13.30000000
H       39.14695652      49.29086957      13.30000000
O       39.38695652      51.35217391      13.30000000
H       40.34695652      51.35217391      13.30000000
H       39.14695652      52.28217391      13.30000000
O       39.38695652      54.34347826      13.30000000
H       40.34695652      54.34347826      13.30000000
H       39.14695652      55.27347826      13.30000000
O       39.38695652      57.33478261      13.30000000
H       40.34695652      57.33478261      13.30000000
H       39.14695652      58.26478261      13.30000000
O       39.38695652      60.32608696      13.30000000
H       40.34695652      60.32608696      13.30000000
H       39.14695652      61.25608696      13.30000000
O       39.38695652      63.31739130      13.30000000
H       40.34695652      63.31739130      13.30000000
H       39.14695652      64.24739130      13.30000000
O       39.38695652      66.30869565      13.30000000
H       40.34695652      66.30869565      13.30000000
H       39.14695652      67.23869565      13.30000000
O       42.37826087       0.50000000      13.30000000
H       43.33826087       0.50000000      13.30000000
H       42.13826087       1.43000000      13.30000000
O       42.37826087       3.49130435      13.30000000
H       43.33826087       3.49130435      13.30000000
H       42.13826087       4.42130435      13.30000000
O       42.37826087       6.48260870      13.30000000
H       43.33826087       6.48260870      13.30000000
H       42.13826087       7.41260870      13.30000000
O       42.37826087       9.47391304      13.30000000
H       43.33826087       9.47391304      13.30000000
H       42.13826087      10.40391304      13.30000000
O       42.37826087      12.46521739      13.30000000
H       43.33826087      12.46521739      13.30000000
H       42.13826087      13.39521739      13.30000000
O       42.37826087      15.45652174      13.30000000
H       43.33826087      15.45652174      13.30000000
H       42.13826087      16.38652174      13.30000000
O       42.37826087      18.44782609      13.30000000
H       43.33826087      18.44782609      13.30000000
H       42.13826087      19.37782609      13.30000000
O       42.37826087      21.43913043      13.30000000
H       43.33826087      21.43913043      13.30000000
H       42.13826087      22.36913043      13.30000000
O       42.37826087      24.43043478      13.30000000
H       43.33826087      24.43043478      13.30000000
H       42.13826087      25.36043478      13.30000000
O       42.37826087      27.42173913      13.30000000
H       43.33826087      27.42173913      13.30000000
H       42.13826087      28.35173913      13.30000000
O       42.37826087      30.41304348      13.30000000
H       43.33826087      30.41304348      13.30000000
H       42.13826087      31.34304348      13.30000000
O       42.37826087      33.40434783      13.30000000
H       43.33826087      33.40434783      13.30000000
H       42.13826087      34.33434783      13.30000000
O       42.37826087      36.39565217      13.30000000
H       43.33826087      36.39565217      13.30000000
H       42.13826087      37.32565217      13.30000000
O       42.37826087      39.38695652      13.30000000
H       43.33826087      39.38695652      13.30000000
H       42.13826087      40.31695652      13.30000000
O       42.37826087      42.37826087      13.30000000
H       43.33826087      42.37826087      13.30000000
H       42.13826087      43.30826087      13.30000000
O       42.37826087      45.36956522      13.30000000
H       43.33826087      45.36956522      13.30000000
H       42.13826087      46.29956522      13.30000000
O       42.37826087      48.36086957      13.30000000
H       43.33826087      48.36086957      13.30000000
H       42.13826087      49.29086957      13.30000000
O       42.37826087      51.35217391      13.30000000
H       43.33826087      51.35217391      13.30000000
H       42.13826087      52.28217391      13.30000000
O       42.37826087      54.34347826      13.30000000
H       43.33826087      54.34347826      13.30000000
H       42.13826087      55.27347826      13.30000000
O       42.37826087      57.33478261      13.30000000
H       43.33826087      57.33478261      13.30000000
H       42.13826087      58.26478261      13.30000000
O       42.37826087      60.32608696      13.30000000
H       43.33826087      60.32608696      13.30000000
H       42.13826087      61.25608696      13.30000000
O       42.37826087      63.31739130      13.30000000
H       43.33826087      63.31739130      13.30000000
H       42.13826087      64.24739130      13.30000000
O       42.37826087      66.30869565      13.30000000
H       43.33826087      66.30869565      13.30000000
H       42.13826087      67.23869565      13.30000000
O       45.36956522       0.50000000      13.30000000
H       46.32956522       0.50000000      13.30000000
H       45.12956522       1.43000000      13.30000000
O       45.36956522       3.49130435      13.30000000
H       46.32956522       3.49130435      13.30000000
H       45.12956522       4.42130435      13.30000000
O       45.36956522       6.48260870      13.30000000
H       46.32956522       6.48260870      13.30000000
H       45.12956522       7.41260870      13.30000000
O       45.36956522       9.47391304      13.30000000
H       46.32956522       9.47391304      13.30000000
H       45.12956522      10.40391304      13.30000000
O       45.36956522      12.46521739      13.30000000
H       46.32956522      12.46521739      13.30000000
H       45.12956522      13.39521739      13.30000000
O       45.36956522      15.45652174      13.30000000
H       46.32956522      15.45652174      13.30000000
H       45.12956522      16.38652174      13.30000000
O       45.36956522      18.44782609      13.30000000
H       46.32956522      18.44782609      13.30000000
H       45.12956522      19.37782609      13.30000000
O       45.36956522      21.43913043      13.30000000
H       46.32956522      21.43913043      13.30000000
H       45.12956522      22.36913043      13.30000000
O       45.36956522      24.43043478      13.30000000
H       46.32956522      24.43043478      13.30000000
H       45.12956522      25.36043478      13.30000000
O       45.36956522      27.42173913      13.30000000
H       46.32956522      27.42173913      13.30000000
H       45.12956522      28.35173913      13.30000000
O       45.36956522      30.41304348      13.30000000
H       46.32956522      30.41304348      13.30000000
H       45.12956522      31.34304348      13.30000000
O       45.36956522      33.40434783      13.30000000
H       46.32956522      33.40434783      13.30000000
H       45.12956522      34.33434783      13.30000000
O       45.36956522      36.39565217      13.30000000
H       46.32956522      36.39565217      13.30000000
H       45.12956522      37.32565217      13.30000000
O       45.36956522      39.38695652      13.30000000
H       46.32956522      39.38695652      13.30000000
H       45.12956522      40.31695652      13.30000000
O       45.36956522      42.37826087      13.30000000
H       46.32956522      42.37826087      13.30000000
H       45.12956522      43.30826087      13.30000000
O       45.36956522      45.36956522      13.30000000
H       46.32956522      45.36956522      13.30000000
H       45.12956522      46.29956522      13.30000000
O       45.36956522      48.36086957      13.30000000
H       46.32956522      48.36086957      13.30000000
H       45.12956522      49.29086957      13.30000000
O       45.36956522      51.35217391      13.30000000
H       46.32956522      51.35217391      13.30000000
H       45.12956522      52.28217391      13.30000000
O       45.36956522      54.34347826      13.30000000
H       46.32956522      54.34347826      13.30000000
H       45.12956522      55.27347826      13.30000000
O       45.36956522      57.33478261      13.30000000
H       46.32956522      57.33478261      13.30000000
H       45.12956522      58.26478261      13.30000000
O       45.36956522      60.32608696      13.30000000
H       46.32956522      60.32608696      13.30000000
H       45.12956522      61.25608696      13.30000000
O       45.36956522      63.31739130      13.30000000
H       46.32956522      63.31739130      13.30000000
H       45.12956522      64.24739130      13.30000000
O       45.36956522      66.30869565      13.30000000
H       46.32956522      66.30869565      13.30000000
H       45.12956522      67.23869565      13.30000000
O       48.36086957       0.50000000      13.30000000
H       49.32086957       0.50000000      13.30000000
H       48.12086957       1.43000000      13.30000000
O       48.36086957       3.49130435      13.30000000
H       49.32086957       3.49130435      13.30000000
H       48.12086957       4.42130435      13.30000000
O       48.36086957       6.48260870      13.30000000
H       49.32086957       6.48260870      13.30000000
H       48.12086957       7.41260870      13.30000000
O       48.36086957       9.47391304      13.30000000
H       49.32086957       9.47391304      13.30000000
H       48.12086957      10.40391304      13.30000000
O       48.36086957      12.46521739      13.30000000
H       49.32086957      12.46521739      13.30000000
H       48.12086957      13.39521739      13.30000000
O       48.36086957      15.45652174      13.30000000
H       49.32086957      15.45652174      13.30000000
H       48.12086957      16.38652174      13.30000000
O       48.36086957      18.44782609      13.30000000
H       49.32086957      18.44782609      13.30000000
H       48.12086957      19.37782609      13.30000000
O       48.36086957      21.43913043      13.30000000
H       49.32086957      21.43913043      13.30000000
H       48.12086957      22.36913043      13.30000000
O       48.36086957      24.43043478      13.30000000
H       49.32086957      24.43043478      13.30000000
H       48.12086957      25.36043478      13.30000000
O       48.36086957      27.42173913      13.30000000
H       49.32086957      27.42173913      13.30000000
H       48.12086957      28.35173913      13.30000000
O       48.36086957      30.41304348      13.30000000
H       49.32086957      30.41304348      13.30000000
H       48.12086957      31.34304348      13.30000000
O       48.36086957      33.40434783      13.30000000
H       49.32086957      33.40434783      13.30000000
H       48.12086957      34.33434783      13.30000000
O       48.36086957      36.39565217      13.30000000
H       49.32086957      36.39565217      13.30000000
H       48.12086957      37.32565217      13.30000000
O       48.36086957      39.38695652      13.30000000
H       49.32086957      39.38695652      13.30000000
H       48.12086957      40.31695652      13.30000000
O       48.36086957      42.37826087      13.30000000
H       49.32086957      42.37826087      13.30000000
H       48.12086957      43.30826087      13.30000000
O       48.36086957      45.36956522      13.30000000
H       49.32086957      45.36956522      13.30000000
H       48.12086957      46.29956522      13.30000000
O       48.36086957      48.36086957      13.30000000
H       49.32086957      48.36086957      13.30000000
H       48.12086957      49.29086957      13.30000000
O       48.36086957      51.35217391      13.30000000
H       49.32086957      51.35217391      13.30000000
H       48.12086957      52.28217391      13.30000000
O       48.36086957      54.34347826      13.30000000
H       49.32086957      54.34347826      13.30000000
H       48.12086957      55.27347826      13.30000000
O       48.36086957      57.33478261      13.30000000
H       49.32086957      57.33478261      13.30000000
H       48.12086957      58.26478261      13.30000000
O       48.36086957      60.32608696      13.30000000
H       49.32086957      60.32608696      13.30000000
H       48.12086957      61.25608696      13.30000000
O       48.36086957      63.31739130      13.30000000
H       49.32086957      63.31739130      13.30000000
H       48.12086957      64.24739130      13.30000000
O       48.36086957      66.30869565      13.30000000
H       49.32086957      66.30869565      13.30000000
H       48.12086957      67.23869565      13.30000000
O       51.35217391       0.50000000      13.30000000
H       52.31217391       0.50000000      13.30000000
H       51.11217391       1.43000000      13.30000000
O       51.35217391       3.49130435      13.30000000
H       52.31217391       3.49130435      13.30000000
H       51.11217391       4.42130435      13.30000000
O       51.35217391       6.48260870      13.30000000
H       52.31217391       6.48260870      13.30000000
H       51.11217391       7.41260870      13.30000000
O       51.35217391       9.47391304      13.30000000
H       52.31217391       9.47391304      13.30000000
H       51.11217391      10.40391304      13.30000000
O       51.35217391      12.46521739      13.30000000
H       52.31217391      12.46521739      13.30000000
H       51.11217391      13.39521739      13.30000000
O       51.35217391      15.45652174      13.30000000
H       52.31217391      15.45652174      13.30000000
H       51.11217391      16.38652174      13.30000000
O       51.35217391      18.44782609      13.30000000
H       52.31217391      18.44782609      13.30000000
H       51.11217391      19.37782609      13.30000000
O       51.35217391      21.43913043      13.30000000
H       52.31217391      21.43913043      13.30000000
H       51.11217391      22.36913043      13.30000000
O       51.35217391      24.43043478      13.30000000
H       52.31217391      24.43043478      13.30000000
H       51.11217391      25.36043478      13.30000000
O       51.35217391      27.42173913      13.30000000
H       52.31217391      27.42173913      13.30000000
H       51.11217391      28.35173913      13.30000000
O       51.35217391      30.41304348      13.30000000
H       52.31217391      30.41304348      13.30000000
H       51.11217391      31.34304348      13.30000000
O       51.35217391      33.40434783      13.30000000
H       52.31217391      33.40434783      13.30000000
H       51.11217391      34.33434783      13.30000000
O       51.35217391      36.39565217      13.30000000
H       52.31217391      36.39565217      13.30000000
H       51.11217391      37.32565217      13.30000000
O       51.35217391      39.38695652      13.30000000
H       52.31217391      39.38695652      13.30000000
H       51.11217391      40.31695652      13.30000000
O       51.35217391      42.37826087      13.30000000
H       52.31217391      42.37826087      13.30000000
H       51.11217391      43.30826087      13.30000000
O       51.35217391      45.36956522      13.30000000
H       52.31217391      45.36956522      13.30000000
H       51.11217391      46.29956522      13.30000000
O       51.35217391      48.36086957      13.30000000
H       52.31217391      48.36086957      13.30000000
H       51.11217391      49.29086957      13.30000000
O       51.35217391      51.35217391      13.30000000
H       52.31217391      51.35217391      13.30000000
H       51.11217391      52.28217391      13.30000000
O       51.35217391      54.34347826      13.30000000
H       52.31217391      54.34347826      13.30000000
H       51.11217391      55.27347826      13.30000000
O       51.35217391      57.33478261      13.30000000
H       52.31217391      57.33478261      13.30000000
H       51.11217391      58.26478261      13.30000000
O       51.35217391      60.32608696      13.30000000
H       52.31217391      60.32608696      13.30000000
H       51.11217391      61.25608696      13.30000000
O       51.35217391      63.31739130      13.30000000
H       52.31217391      63.31739130      13.30000000
H       51.11217391      64.24739130      13.30000000
O       51.35217391      66.30869565      13.30000000
H       52.31217391      66.30869565      13.30000000
H       51.11217391      67.23869565      13.30000000
O       54.34347826       0.50000000      13.30000000
H       55.30347826       0.50000000      13.30000000
H       54.10347826       1.43000000      13.30000000
O       54.34347826       3.49130435      13.30000000
H       55.30347826       3.49130435      13.30000000
H       54.10347826       4.42130435      13.30000000
O       54.34347826       6.48260870      13.30000000
H       55.30347826       6.48260870      13.30000000
H       54.10347826       7.41260870      13.30000000
O       54.34347826       9.47391304      13.30000000
H       55.30347826       9.47391304      13.30000000
H       54.10347826      10.40391304      13.30000000
O       54.34347826      12.46521739      13.30000000
H       55.30347826      12.46521739      13.30000000
H       54.10347826      13.39521739      13.30000000
O       54.34347826      15.45652174      13.30000000
H       55.30347826      15.45652174      13.30000000
H       54.10347826      16.38652174      13.30000000
O       54.34347826      18.44782609      13.30000000
H       55.30347826      18.44782609      13.30000000
H       54.10347826      19.37782609      13.30000000
O       54.34347826      21.43913043      13.30000000
H       55.30347826      21.43913043      13.30000000
H       54.10347826      22.36913043      13.30000000
O       54.34347826      24.43043478      13.30000000
H       55.30347826      24.43043478      13.30000000
H       54.10347826      25.36043478      13.30000000
O       54.34347826      27.42173913      13.30000000
H       55.30347826      27.42173913      13.30000000
H       54.10347826      28.35173913      13.30000000
O       54.34347826      30.41304348      13.30000000
H       55.30347826      30.41304348      13.30000000
H       54.10347826      31.34304348      13.30000000
O       54.34347826      33.40434783      13.30000000
H       55.30347826      33.40434783      13.30000000
H       54.10347826      34.33434783      13.30000000
O       54.34347826      36.39565217      13.30000000
H       55.30347826      36.39565217      13.30000000
H       54.10347826      37.32565217      13.30000000
O       54.34347826      39.38695652      13.30000000
H       55.30347826      39.38695652      13.30000000
H       54.10347826      40.31695652      13.30000000
O       54.34347826      42.37826087      13.30000000
H       55.30347826      42.37826087      13.30000000
H       54.10347826      43.30826087      13.30000000
O       54.34347826      45.36956522      13.30000000
H       55.30347826      45.36956522      13.30000000
H       54.10347826      46.29956522      13.30000000
O       54.34347826      48.36086957      13.30000000
H       55.30347826      48.36086957      13.30000000
H       54.10347826      49.29086957      13.30000000
O       54.34347826      51.35217391      13.30000000
H       55.30347826      51.35217391      13.30000000
H       54.10347826      52.28217391      13.30000000
O       54.34347826      54.34347826      13.30000000
H       55.30347826      54.34347826      13.30000000
H       54.10347826      55.27347826      13.30000000
O       54.34347826      57.33478261      13.30000000
H       55.30347826      57.33478261      13.30000000
H       54.10347826      58.26478261      13.30000000
O       54.34347826      60.32608696      13.30000000
H       55.30347826      60.32608696      13.30000000
H       54.10347826      61.25608696      13.30000000
O       54.34347826      63.31739130      13.30000000
H       55.30347826      63.31739130      13.30000000
H       54.10347826      64.24739130      13.30000000
O       54.34347826      66.30869565      13.30000000
H       55.30347826      66.30869565      13.30000000
H       54.10347826      67.23869565      13.30000000
O       57.33478261       0.50000000      13.30000000
H       58.29478261       0.50000000      13.30000000
H       57.09478261       1.43000000      13.30000000
O       57.33478261       3.49130435      13.30000000
H       58.29478261       3.49130435      13.30000000
H       57.09478261       4.42130435      13.30000000
O       57.33478261       6.48260870      13.30000000
H       58.29478261       6.48260870      13.30000000
H       57.09478261       7.41260870      13.30000000
O       57.33478261       9.47391304      13.30000000
H       58.29478261       9.47391304      13.30000000
H       57.09478261      10.40391304      13.30000000
O       57.33478261      12.46521739      13.30000000
H       58.29478261      12.46521739      13.30000000
H       57.09478261      13.39521739      13.30000000
O       57.33478261      15.45652174      13.30000000
H       58.29478261      15.45652174      13.30000000
H       57.09478261      16.38652174      13.30000000
O       57.33478261      18.44782609      13.30000000
H       58.29478261      18.44782609      13.30000000
H       57.09478261      19.37782609      13.30000000
O       57.33478261      21.43913043      13.30000000
H       58.29478261      21.43913043      13.30000000
H       57.09478261      22.36913043      13.30000000
O       57.33478261      24.43043478      13.30000000
H       58.29478261      24.43043478      13.30000000
H       57.09478261      25.36043478      13.30000000
O       57.33478261      27.42173913      13.30000000
H       58.29478261      27.42173913      13.30000000
H       57.09478261      28.35173913      13.30000000
O       57.33478261      30.41304348      13.30000000
H       58.29478261      30.41304348      13.30000000
H       57.09478261      31.34304348      13.30000000
O       57.33478261      33.40434783      13.30000000
H       58.29478261      33.40434783      13.30000000
H       57.09478261      34.33434783      13.30000000
O       57.33478261      36.39565217      13.30000000
H       58.29478261      36.39565217      13.30000000
H       57.09478261      37.32565217      13.30000000
O       57.33478261      39.38695652      13.30000000
H       58.29478261      39.38695652      13.30000000
H       57.09478261      40.31695652      13.30000000
O       57.33478261      42.37826087      13.30000000
H       58.29478261      42.37826087      13.30000000
H       57.09478261      43.30826087      13.30000000
O       57.33478261      45.36956522      13.30000000
H       58.29478261      45.36956522      13.30000000
H       57.09478261      46.29956522      13.30000000
O       57.33478261      48.36086957      13.30000000
H       58.29478261      48.36086957      13.30000000
H       57.09478261      49.29086957      13.30000000
O       57.33478261      51.35217391      13.30000000
H       58.29478261      51.35217391      13.30000000
H       57.09478261      52.28217391      13.30000000
O       57.33478261      54.34347826      13.30000000
H       58.29478261      54.34347826      13.30000000
H       57.09478261      55.27347826      13.30000000
O       57.33478261      57.33478261      13.30000000
H       58.29478261      57.33478261      13.30000000
H       57.09478261      58.26478261      13.30000000
O       57.33478261      60.32608696      13.30000000
H       58.29478261      60.32608696      13.30000000
H       57.09478261      61.25608696      13.30000000
O       57.33478261      63.31739130      13.30000000
H       58.29478261      63.31739130      13.30000000
H       57.09478261      64.24739130      13.30000000
O       57.33478261      66.30869565      13.30000000
H       58.29478261      66.30869565      13.30000000
H       57.09478261      67.23869565      13.30000000
O       60.32608696       0.50000000      13.30000000
H       61.28608696       0.50000000      13.30000000
H       60.08608696       1.43000000      13.30000000
O       60.32608696       3.49130435      13.30000000
H       61.28608696       3.49130435      13.30000000
H       60.08608696       4.42130435      13.30000000
O       60.32608696       6.48260870      13.30000000
H       61.28608696       6.48260870      13.30000000
H       60.08608696       7.41260870      13.30000000
O       60.32608696       9.47391304      13.30000000
H       61.28608696       9.47391304      13.30000000
H       60.08608696      10.40391304      13.30000000
O       60.32608696      12.46521739      13.30000000
H       61.28608696      12.46521739      13.30000000
H       60.08608696      13.39521739      13.30000000
O       60.32608696      15.45652174      13.30000000
H       61.28608696      15.45652174      13.30000000
H       60.08608696      16.38652174      13.30000000
O       60.32608696      18.44782609      13.30000000
H       61.28608696      18.44782609      13.30000000
H       60.08608696      19.37782609      13.30000000
O       60.32608696      21.43913043      13.30000000
H       61.28608696      21.43913043      13.30000000
H       60.08608696      22.36913043      13.30000000
O       60.32608696      24.43043478      13.30000000
H       61.28608696      24.43043478      13.30000000
H       60.08608696      25.36043478      13.30000000
O       60.32608696      27.42173913      13.30000000
H       61.28608696      27.42173913      13.30000000
H       60.08608696      28.35173913      13.30000000
O       60.32608696      30.41304348      13.30000000
H       61.28608696      30.41304348      13.30000000
H       60.08608696      31.34304348      13.30000000
O       60.32608696      33.40434783      13.30000000
H       61.28608696      33.40434783      13.30000000
H       60.08608696      34.33434783      13.30000000
O       60.32608696      36.39565217      13.30000000
H       61.28608696      36.39565217      13.30000000
H       60.08608696      37.32565217      13.30000000
O       60.32608696      39.38695652      13.30000000
H       61.28608696      39.38695652      13.30000000
H       60.08608696      40.31695652      13.30000000
O       60.32608696      42.37826087      13.30000000
H       61.28608696      42.37826087      13.30000000
H       60.08608696      43.30826087      13.30000000
O       60.32608696      45.36956522      13.30000000
H       61.28608696      45.36956522      13.30000000
H       60.08608696      46.29956522      13.30000000
O       60.32608696      48.36086957      13.30000000
H       61.28608696      48.36086957      13.30000000
H       60.08608696      49.29086957      13.30000000
O       60.32608696      51.35217391      13.30000000
H       61.28608696      51.35217391      13.30000000
H       60.08608696      52.28217391      13.30000000
O       60.32608696      54.34347826      13.30000000
H       61.28608696      54.34347826      13.30000000
H       60.08608696      55.27347826      13.30000000
O       60.32608696      57.33478261      13.30000000
H       61.28608696      57.33478261      13.30000000
H       60.08608696      58.26478261      13.30000000
O       60.32608696      60.32608696      13.30000000
H       61.28608696      60.32608696      13.30000000
H       60.08608696      61.25608696      13.30000000
O       60.32608696      63.31739130      13.30000000
H       61.28608696      63.31739130      13.30000000
H       60.08608696      64.24739130      13.30000000
O       60.32608696      66.30869565      13.30000000
H       61.28608696      66.30869565      13.30000000
H       60.08608696      67.23869565      13.30000000
O       63.31739130       0.50000000      13.30000000
H       64.27739130       0.50000000      13.30000000
H       63.07739130       1.43000000      13.30000000
O       63.31739130       3.49130435      13.30000000
H       64.27739130       3.49130435      13.30000000
H       63.07739130       4.42130435      13.30000000
O       63.31739130       6.48260870      13.30000000
H       64.27739130       6.48260870      13.30000000
H       63.07739130       7.41260870      13.30000000
O       63.31739130       9.47391304      13.30000000
H       64.27739130       9.47391304      13.30000000
H       63.07739130      10.40391304      13.30000000
O       63.31739130      12.46521739      13.30000000
H       64.27739130      12.46521739      13.30000000
H       63.07739130      13.39521739      13.30000000
O       63.31739130      15.45652174      13.30000000
H       64.27739130      15.45652174      13.30000000
H       63.07739130      16.38652174      13.30000000
O       63.31739130      18.44782609      13.30000000
H       64.27739130      18.44782609      13.30000000
H       63.07739130      19.37782609      13.30000000
O       63.31739130      21.43913043      13.30000000
H       64.27739130      21.43913043      13.30000000
H       63.07739130      22.36913043      13.30000000
O       63.31739130      24.43043478      13.30000000
H       64.27739130      24.43043478      13.30000000
H       63.07739130      25.36043478      13.30000000
O       63.31739130      27.42173913      13.30000000
H       64.27739130      27.42173913      13.30000000
H       63.07739130      28.35173913      13.30000000
O       63.31739130      30.41304348      13.30000000
H       64.27739130      30.41304348      13.30000000
H       63.07739130      31.34304348      13.30000000
O       63.31739130      33.40434783      13.30000000
H       64.27739130      33.40434783      13.30000000
H       63.07739130      34.33434783      13.30000000
O       63.31739130      36.39565217      13.30000000
H       64.27739130      36.39565217      13.30000000
H       63.07739130      37.32565217      13.30000000
O       63.31739130      39.38695652      13.30000000
H       64.27739130      39.38695652      13.30000000
H       63.07739130      40.31695652      13.30000000
O       63.31739130      42.37826087      13.30000000
H       64.27739130      42.37826087      13.30000000
H       63.07739130      43.30826087      13.30000000
O       63.31739130      45.36956522      13.30000000
H       64.27739130      45.36956522      13.30000000
H       63.07739130      46.29956522      13.30000000
O       63.31739130      48.36086957      13.30000000
H       64.27739130      48.36086957      13.30000000
H       63.07739130      49.29086957      13.30000000
O       63.31739130      51.35217391      13.30000000
H       64.27739130      51.35217391      13.30000000
H       63.07739130      52.28217391      13.30000000
O       63.31739130      54.34347826      13.30000000
H       64.27739130      54.34347826      13.30000000
H       63.07739130      55.27347826      13.30000000
O       63.31739130      57.33478261      13.30000000
H       64.27739130      57.33478261      13.30000000
H       63.07739130      58.26478261      13.30000000
O       63.31739130      60.32608696      13.30000000
H       64.27739130      60.32608696      13.30000000
H       63.07739130      61.25608696      13.30000000
O       63.31739130      63.31739130      13.30000000
H       64.27739130      63.31739130      13.30000000
H       63.07739130      64.24739130      13.30000000
O       63.31739130      66.30869565      13.30000000
H       64.27739130      66.30869565      13.30000000
H       63.07739130      67.23869565      13.30000000
O       66.30869565       0.50000000      13.30000000
H       67.26869565       0.50000000      13.30000000
H       66.06869565       1.43000000      13.30000000
O       66.30869565       3.49130435      13.30000000
H       67.26869565       3.49130435      13.30000000
H       66.06869565       4.42130435      13.30000000
O       66.30869565       6.48260870      13.30000000
H       67.26869565       6.48260870      13.30000000
H       66.06869565       7.41260870      13.30000000
O       66.30869565       9.47391304      13.30000000
H       67.26869565       9.47391304      13.30000000
H       66.06869565      10.40391304      13.30000000
O       66.30869565      12.46521739      13.30000000
H       67.26869565      12.46521739      13.30000000
H       66.06869565      13.39521739      13.30000000
O       66.30869565      15.45652174      13.30000000
H       67.26869565      15.45652174      13.30000000
H       66.06869565      16.38652174      13.30000000
O       66.30869565      18.44782609      13.30000000
H       67.26869565      18.44782609      13.30000000
H       66.06869565      19.37782609      13.30000000
O       66.30869565      21.43913043      13.30000000
H       67.26869565      21.43913043      13.30000000
H       66.06869565      22.36913043      13.30000000
O       66.30869565      24.43043478      13.30000000
H       67.26869565      24.43043478      13.30000000
H       66.06869565      25.36043478      13.30000000
O       66.30869565      27.42173913      13.30000000
H       67.26869565      27.42173913      13.30000000
H       66.06869565      28.35173913      13.30000000
O       66.30869565      30.41304348      13.30000000
H       67.26869565      30.41304348      13.30000000
H       66.06869565      31.34304348      13.30000000
O       66.30869565      33.40434783      13.30000000
H       67.26869565      33.40434783      13.30000000
H       66.06869565      34.33434783      13.30000000
O       66.30869565      36.39565217      13.30000000
H       67.26869565      36.39565217      13.30000000
H       66.06869565      37.32565217      13.30000000
O       66.30869565      39.38695652      13.30000000
H       67.26869565      39.38695652      13.30000000
H       66.06869565      40.31695652      13.30000000
O       66.30869565      42.37826087      13.30000000
H       67.26869565      42.37826087      13.30000000
H       66.06869565      43.30826087      13.30000000
O       66.30869565      45.36956522      13.30000000
H       67.26869565      45.36956522      13.30000000
H       66.06869565      46.29956522      13.30000000
O       66.30869565      48.36086957      13.30000000
H       67.26869565      48.36086957      13.30000000
H       66.06869565      49.29086957      13.30000000
O       66.30869565      51.35217391      13.30000000
H       67.26869565      51.35217391      13.30000000
H       66.06869565      52.28217391      13.30000000
O       66.30869565      54.34347826      13.30000000
H       67.26869565      54.34347826      13.30000000
H       66.06869565      55.27347826      13.30000000
O       66.30869565      57.33478261      13.30000000
H       67.26869565      57.33478261      13.30000000
H       66.06869565      58.26478261      13.30000000
O       66.30869565      60.32608696      13.30000000
H       67.26869565      60.32608696      13.30000000
H       66.06869565      61.25608696      13.30000000
O       66.30869565      63.31739130      13.30000000
H       67.26869565      63.31739130      13.30000000
H       66.06869565      64.24739130      13.30000000
O       66.30869565      66.30869565      13.30000000
H       67.26869565      66.30869565      13.30000000
H       66.06869565      67.23869565      13.30000000
